 $contrl  ISPHER=1  scftyp=none   cityp=aldet $end
 $SYSTEM mwords=10000 $END
 $cidet pures=.T. NFLGDM(1)=1,1 ncore=45 nact=16
 nels=16  nstate=5   $end
 $GUESS guess=moread  norb=274 NORDER=1  IORDER(45)=48
 IORDER(48)=45  IORDER(40)=46  IORDER(46)=40 
 IORDER(63)=58  IORDER(58)=63  IORDER(67)=59
 IORDER(59)=67  IORDER(70)=60  IORDER(60)=70
 IORDER(76)=61  IORDER(61)=76
 $END
 $BASIS  GBASIS=CCD $END
 $DATA
 pyrene ras2
 C1
 C  6  -3.007588    -0.664397    -0.000680
 C  6  -1.622823    -0.662623    -0.000619
 C  6  -0.908916     0.537953    -0.000469
 C  6  -1.625537     1.764912    -0.000383
 C  6  -3.046386     1.754072    -0.000443
 C  6  -3.713594     0.526898    -0.000593
 C  6   0.516244     0.581419    -0.000401
 C  6  -0.925353     2.995638    -0.000237
 C  6   0.495495     3.006478    -0.000176
 C  6   1.186315     1.759126    -0.000262
 C  6   1.162705     4.233653    -0.000036
 H  1   2.246158     4.241556     0.000007
 C  6   0.456700     5.424946     0.000044
 C  6  -0.928067     5.423172    -0.000014
 C  6  -1.641974     4.222599    -0.000155
 C  6  -3.067135     4.179131    -0.000220
 C  6  -3.737205     3.001424    -0.000355
 H  1  -4.820769     2.986620    -0.000396
 H  1  -3.608144     5.118092    -0.000160
 H  1   1.057256    -0.357541    -0.000466
 H  1  -3.542886    -1.605286    -0.000798
 H  1  -1.075887    -1.597941    -0.000690
 H  1  -4.797047     0.518989    -0.000640
 H  1   2.269879     1.773933    -0.000213
 H  1   0.991995     6.365836     0.000154
 H  1  -1.474999     6.358492     0.000047
 $end


--- CLOSED SHELL ORBITALS --- GENERATED AT Wed Oct 14 18:10:48 2020
 pyrene RHF                                                                 
E(RHF)=     -611.8109062188, E(NUC)=  971.2488131210,   12 ITERS
 $VEC   
 1  1 6.04777268E-03-7.28705964E-05 2.96143261E-04-8.46189897E-06-1.46497724E-05
 1  2 1.66806708E-09-1.25825800E-04-2.36076417E-04-3.98835404E-08 1.08478583E-05
 1  3 4.09177136E-05-5.17655719E-05 2.82607925E-05 3.56801824E-09 9.75767881E-09
 1  4 3.66199940E-02-1.20274262E-04 1.55318288E-03-2.44781458E-05-5.61325676E-05
 1  5-4.94272920E-09 6.27344712E-04 8.68226896E-04 1.25421694E-07 1.00104812E-05
 1  6-8.49578898E-05 7.49474086E-05-1.73955233E-05-7.97763653E-09-1.41855260E-08
 1  7 4.58577631E-01 1.94425154E-03-4.02213595E-03 3.31467951E-05 1.04103152E-05
 1  8 8.73384339E-09-4.49876661E-04 1.24540502E-03 9.06186456E-08 9.83284119E-05
 1  9 8.54366440E-05-1.83765056E-04 4.34811385E-05 1.82403227E-08 3.87969262E-08
 1 10 2.53717654E-01 9.31734200E-04-1.58077900E-03 1.42775188E-05 2.22682542E-05
 1 11 7.01605037E-09-1.57075506E-05 3.32255134E-04 2.75715479E-08-1.45747121E-04
 1 12-7.28913167E-05 2.18638438E-04 7.13991901E-05-1.30895630E-08-2.74303740E-08
 1 13 4.68228046E-01 1.99899380E-03-4.32833067E-03-8.63405351E-06 3.51871390E-05
 1 14 2.90773205E-09 1.14708410E-03 1.58700542E-04 6.35229638E-08 5.30486260E-05
 1 15 1.31346898E-04-1.84395524E-04 1.42360620E-05 1.27988829E-08 4.34420260E-08
 1 16 3.74204158E-02-1.17015025E-04 1.51071066E-03-3.60490125E-05-5.01267462E-05
 1 17-5.77113343E-09 4.36469941E-04 9.50707406E-04 1.21870377E-07-4.81473683E-05
 1 18-2.95424509E-05 7.76898192E-05-5.69434244E-05-7.01645239E-09-1.27707065E-08
 1 19 5.01596495E-02-2.63871954E-05 1.04901400E-03 3.71032011E-05-2.46464275E-05
 1 20 2.82174063E-09-5.54030144E-04-2.59906540E-04-4.54037382E-08-1.20293769E-04
 1 21 4.99385337E-05 7.03552349E-05 4.12678945E-05-8.75416239E-09 2.43727459E-09
 1 22 2.53705597E-01 9.31662413E-04-1.58026117E-03-1.42697047E-05-2.22671653E-05
 1 23-6.30848052E-09 1.48727457E-05-3.32962651E-04-3.29390648E-08-1.45740063E-04
 1 24-7.28749118E-05 2.18614975E-04 7.14082309E-05-1.44018186E-08-2.62061470E-08
 1 25 4.68146460E-01 1.99858849E-03-4.32708274E-03 8.63772547E-06-3.51813049E-05
 1 26-5.19175370E-09-1.14747867E-03-1.58340116E-04-4.95676358E-08 5.30566416E-05
 1 27 1.31317676E-04-1.84374318E-04 1.42338938E-05 1.21079719E-08 4.19979624E-08
 1 28 5.09722256E-02-2.69600857E-05 1.16146876E-03 3.98577632E-05-1.92175841E-05
 1 29-1.80973015E-11-1.32713624E-04 5.91935547E-04 4.28456276E-08-2.63569597E-05
 1 30-4.58210576E-05 7.21780173E-05 1.07172662E-04 3.91186982E-09-4.01539132E-09
 1 31 3.74132203E-02-1.17014666E-04 1.51034277E-03 3.60472485E-05 5.01232481E-05
 1 32 5.48168564E-09-4.36231439E-04-9.50646350E-04-1.18961082E-07-4.81361351E-05
 1 33-2.95342456E-05 7.76703806E-05-5.69361107E-05-5.16396919E-09-1.11126727E-08
 1 34-8.57864425E-06 1.81570658E-04-4.18164281E-05 1.72534713E-05-8.02556157E-10
 1 35 6.04722271E-03-7.28797404E-05 2.96388225E-04 8.46168475E-06 1.46487948E-05
 1 36-2.13318316E-09 1.25732811E-04 2.35963830E-04 4.01218986E-08 1.08551106E-05
 1 37 4.09128971E-05-5.17680077E-05 2.82608596E-05 3.45982005E-09 8.84575611E-09
 1 38 3.66213951E-02-1.20261159E-04 1.55274075E-03 2.44813287E-05 5.61377563E-05
 1 39 4.78835499E-09-6.27376135E-04-8.68075711E-04-1.20436801E-07 1.00051659E-05
 1 40-8.49629017E-05 7.49577358E-05-1.73942289E-05-7.40184706E-09-1.25629283E-08
 1 41 4.58595261E-01 1.94433087E-03-4.02222679E-03-3.31485406E-05-1.04123964E-05
 1 42-7.97786452E-09 4.50291639E-04-1.24506284E-03-8.05503749E-08 9.83361298E-05
 1 43 8.54338329E-05-1.83769963E-04 4.34906890E-05 1.66320747E-08 3.73875776E-08
 1 44 5.01622936E-02-2.63937526E-05 1.04934457E-03-3.71006321E-05 2.46492210E-05
 1 45-2.68681883E-09 5.54141013E-04 2.59785514E-04 4.16965159E-08-1.20299461E-04
 1 46 4.99463785E-05 7.03530830E-05 4.12700007E-05-9.67589501E-09 2.41353171E-09
 1 47 5.09801560E-02-2.69353913E-05 1.16119871E-03-3.98639903E-05 1.92207815E-05
 1 48-3.97681939E-10 1.32673523E-04-5.91901637E-04-4.62350006E-08-2.63660093E-05
 1 49-4.58375036E-05 7.22035130E-05 1.07189179E-04 3.08487159E-09-4.04791896E-09
 1 50-5.11778633E-05 1.07434914E-04 3.36230624E-05 2.55806729E-05-1.22592302E-10
 1 51-5.36168364E-05 8.90465392E-05-4.18676156E-06-4.27227211E-05-4.18674084E-09
 1 52-5.36170723E-05 8.90021250E-05 4.18441774E-06 4.27243167E-05 4.80420648E-09
 1 53-7.92701772E-05-2.61238702E-06 9.45975548E-07 2.18295028E-06 1.21954791E-10
 1 54-1.13538060E-05 1.77166917E-04-3.60535592E-05 2.67048541E-05 1.92832056E-09
 1 55-8.56503270E-06 1.81642337E-04 4.18202570E-05-1.72556386E-05 1.06409559E-09
 1 56-5.11874028E-05 1.07426217E-04-3.36157999E-05-2.55767715E-05 8.28416019E-11
 1 57-7.92648010E-05-2.58410761E-06-9.45426101E-07-2.17977596E-06-2.92934407E-10
 1 58-1.13460148E-05 1.77141256E-04 3.60559759E-05-2.67102436E-05-1.47344573E-09
 2  1 6.62907231E-03 1.37497282E-04-3.88047913E-03-6.69494469E-06-1.17635651E-05
 2  2 1.76976179E-09-1.11660077E-03-1.95633908E-03-2.35364849E-07-4.08600158E-05
 2  3 5.90113351E-06 3.49588823E-05 4.40004207E-05-7.17068719E-10-1.59737869E-09
 2  4 3.83266582E-02-1.39491714E-04 6.46965432E-03 5.55231115E-06 1.39338791E-05
 2  5 6.84200827E-09-8.14038946E-04 3.07200801E-03 2.52527917E-07 8.67918727E-06
 2  6-7.52931936E-05 6.66140063E-05-2.62048435E-05-9.63061887E-09-1.50931520E-08
 2  7 4.74412853E-01 2.41199712E-03-8.76112312E-03-1.09186887E-05 2.33880054E-05
 2  8-3.34648739E-09 7.56514156E-03 1.51946365E-03 5.11017032E-07 5.52217512E-05
 2  9 6.46995827E-05-1.19921334E-04 9.54231007E-05 1.40954319E-08 2.74748731E-08
 2 10 1.78510570E-01 1.08783651E-03-8.13112151E-03 4.22016714E-05 7.19221182E-05
 2 11 6.19911815E-09-8.17142827E-03-1.42509049E-02-1.71921910E-06-1.17791838E-04
 2 12-2.41767871E-04 3.59559709E-04-1.20117121E-04-3.83081662E-08-6.79810287E-08
 2 13 4.88793319E-01 2.48177858E-03-8.95243286E-03 2.63368723E-05 3.72537661E-06
 2 14-9.97068696E-09-2.62855646E-03 7.25228014E-03 6.22965836E-07-1.16677326E-05
 2 15 1.35310197E-04-1.23642465E-04 5.03591961E-05 3.80337596E-09 3.32197032E-08
 2 16 3.95276726E-02-1.37004361E-04 6.45598897E-03 8.61521347E-06 1.06610184E-05
 2 17 5.66961291E-09 3.06871857E-03 8.69150185E-04 2.02957593E-07-3.55163478E-05
 2 18-3.54934775E-05 7.10098254E-05-5.64217138E-05-6.84104875E-09-1.50862858E-08
 2 19 4.06185925E-02 2.68685510E-04-4.96984666E-03 5.83482697E-05-5.28781634E-06
 2 20 4.14588653E-09 1.49481621E-03-1.11538608E-03-4.96382297E-08-1.61913626E-04
 2 21-4.42808990E-05 2.06194525E-04 2.13257376E-05-1.53659144E-08-2.58631328E-08
 2 22-1.78528247E-01-1.08790131E-03 8.13123880E-03 4.21848693E-05 7.19335638E-05
 2 23 5.89060930E-09-8.16900186E-03-1.42522634E-02-1.68803861E-06 1.17803823E-04
 2 24 2.41770941E-04-3.59574764E-04 1.20112470E-04 3.92513516E-08 6.67429156E-08
 2 25-4.88748280E-01-2.48147529E-03 8.95029464E-03 2.63411952E-05 3.71471132E-06
 2 26-7.65035008E-09-2.62727952E-03 7.25300808E-03 5.83173250E-07 1.16403480E-05
 2 27-1.35289725E-04 1.23649377E-04-5.03603636E-05-2.67509867E-09-3.31654283E-08
 2 28-4.22385009E-02-2.71846565E-04 4.96054761E-03-3.53048653E-05 4.73788295E-05
 2 29 2.09219455E-09-1.70467541E-03 7.14932387E-04-1.64234055E-08 9.19445188E-05
 2 30 1.17579677E-04-2.09524195E-04-7.30013664E-05 1.26621842E-08 2.65224960E-08
 2 31-3.95232491E-02 1.37039744E-04-6.45643306E-03 8.61583623E-06 1.06608084E-05
 2 32 5.51538452E-09 3.06867143E-03 8.69445729E-04 1.88085825E-07 3.55072819E-05
 2 33 3.54854071E-05-7.09926890E-05 5.64232640E-05 6.57484921E-09 1.41888810E-08
 2 34-4.74811100E-05-7.77305114E-04-1.45750447E-05-1.96614689E-05 1.62845430E-09
 2 35-6.62936997E-03-1.37491896E-04 3.88046694E-03-6.69373146E-06-1.17655469E-05
 2 36 2.37599369E-09-1.11669628E-03-1.95631126E-03-2.19606849E-07 4.08524263E-05
 2 37-5.89720284E-06-3.49552235E-05-4.40071000E-05 8.83786462E-10 1.74599340E-09
 2 38-3.83355475E-02 1.39477987E-04-6.46945699E-03 5.54905346E-06 1.39253310E-05
 2 39 6.93029979E-09-8.14235022E-04 3.07203074E-03 2.31481153E-07-8.67094832E-06
 2 40 7.53123617E-05-6.66414133E-05 2.62060362E-05 9.00050522E-09 1.44258375E-08
 2 41-4.74522237E-01-2.41257229E-03 8.76386855E-03-1.09051365E-05 2.33900617E-05
 2 42-3.01825108E-09 7.56510615E-03 1.51816590E-03 4.88814115E-07-5.52420529E-05
 2 43-6.46974480E-05 1.19939501E-04-9.54548570E-05-1.19875379E-08-2.63063871E-08
 2 44-4.06286101E-02-2.68679452E-04 4.96886905E-03 5.83492534E-05-5.28747093E-06
 2 45 4.42212387E-09 1.49459224E-03-1.11483639E-03-4.75482793E-08 1.61938331E-04
 2 46 4.42762050E-05-2.06214536E-04-2.13316535E-05 1.49534562E-08 2.50546695E-08
 2 47 4.22412893E-02 2.71842819E-04-4.95973580E-03-3.52998474E-05 4.73781224E-05
 2 48 2.01017494E-09-1.70410147E-03 7.15107088E-04-1.88069188E-08-9.19485313E-05
 2 49-1.17586298E-04 2.09534829E-04 7.30044035E-05-1.29383441E-08-2.55699511E-08
 2 50 6.25344305E-05-3.17860612E-04 7.49674068E-05 1.35462405E-05 1.97090345E-09
 2 51-6.12757683E-05 3.25816487E-04-2.69281388E-05 7.05510136E-05 6.40983072E-09
 2 52 6.12590771E-05-3.25968800E-04-2.69337180E-05 7.05530661E-05 7.14970393E-09
 2 53-7.96109113E-05-4.40342577E-04 2.41780817E-05 4.25975347E-05 4.03754179E-09
 2 54 4.48739036E-05 7.71401224E-04-8.65907236E-06-2.35147615E-05 1.81268271E-09
 2 55 4.75052987E-05 7.77325887E-04-1.45735371E-05-1.96593754E-05 1.63663617E-09
 2 56-6.25095015E-05 3.18001542E-04 7.49762695E-05 1.35465059E-05 2.06730648E-09
 2 57 7.96163278E-05 4.40343805E-04 2.41823243E-05 4.25955534E-05 3.68590411E-09
 2 58-4.48967336E-05-7.71450281E-04-8.66312357E-06-2.35083697E-05 1.19770349E-09
 3  1 6.16892335E-05-7.28845392E-07 4.13748980E-06 1.02263738E-05-5.98376738E-06
 3  2 4.22948844E-10-6.66012378E-04 3.76528998E-04 5.78842430E-09 3.89494667E-05
 3  3-3.84425966E-05-5.06870138E-07 2.69213081E-05 8.13892758E-09-3.87134482E-09
 3  4 4.27948298E-02 1.70700981E-04-2.18657879E-03-9.36610809E-06-2.44311153E-05
 3  5-5.32927338E-09-1.70355693E-03-3.77371165E-04-1.19336231E-07-5.64301656E-05
 3  6-8.54115914E-05 1.41841757E-04-1.68748988E-05-9.62839502E-09-3.16538872E-08
 3  7 5.02470767E-01 2.84864672E-03-1.58404031E-02 8.19852350E-05 8.87424972E-06
 3  8-1.90382895E-10-2.40626654E-05-9.18209627E-03-8.87319388E-07 9.04983430E-05
 3  9-5.63925821E-05-3.41057609E-05 1.58447726E-04 1.88373571E-08-2.24608890E-09
 3 10 2.79033917E-03 1.07545815E-05-2.21565923E-05-1.24075752E-04 7.08557931E-05
 3 11 8.90139248E-10 1.59507179E-02-9.07135112E-03-1.75867704E-07-2.45794947E-05
 3 12 2.24568116E-05 2.12268308E-06-1.52393339E-05-1.60928043E-09-3.57576689E-09
 3 13-4.93631832E-01-2.81116634E-03 1.57639114E-02 3.40641682E-05-7.42537264E-05
 3 14-4.12413460E-09 7.90707104E-03 4.71427379E-03 7.65797962E-07 1.39535869E-04
 3 15-1.70291595E-04 3.07557254E-05-9.15272333E-07 2.94949900E-09-1.43965939E-08
 3 16-4.20718714E-02-1.72891858E-04 2.21406622E-03 1.55328388E-05 1.95765142E-05
 3 17 3.42351984E-09-5.39292822E-04 1.67639885E-03 1.59429540E-07 6.41225634E-05
 3 18 7.63166500E-05-1.40439213E-04 2.17476702E-05 1.72626582E-08 2.96162379E-08
 3 19 4.42120922E-02-2.39626049E-05 5.81606420E-03-1.00121384E-05 1.03123059E-05
 3 20-4.78969941E-09-1.18596761E-03 3.69247636E-03 3.07524653E-07-1.01508070E-04
 3 21 6.22083332E-06 9.52872363E-05 6.89185760E-06-1.03753163E-08-8.70977749E-09
 3 22 2.75519577E-03 1.05471132E-05-2.07037669E-05 1.23975973E-04-7.07809989E-05
 3 23-1.58457410E-10-1.59469384E-02 9.06573884E-03 1.54279877E-07-2.45482846E-05
 3 24 2.24865210E-05 2.06176355E-06-1.52053120E-05-1.06343427E-10-4.61997443E-09
 3 25-4.92925485E-01-2.80775220E-03 1.57550350E-02-3.40959401E-05 7.41842529E-05
 3 26 4.54711423E-09-7.90371069E-03-4.71145292E-03-7.65785275E-07 1.39463349E-04
 3 27-1.70033073E-04 3.05697242E-05-9.25013373E-07 4.75502642E-09-1.19460449E-08
 3 28-4.31158199E-02 2.36826162E-05-5.79220662E-03 1.47873702E-05-3.67689631E-06
 3 29-3.05633687E-09 3.77725945E-03 8.79586568E-04 2.49047814E-07 2.66040939E-05
 3 30 6.72158177E-05-9.38199116E-05-5.57793779E-05 4.50440180E-10 1.89381786E-08
 3 31-4.20109764E-02-1.72727213E-04 2.21214294E-03-1.55020823E-05-1.95057988E-05
 3 32-3.67384387E-09 5.39156357E-04-1.67616495E-03-1.33936427E-07 6.40137612E-05
 3 33 7.61968007E-05-1.40210562E-04 2.16879726E-05 1.60538296E-08 2.58778975E-08
 3 34-1.43368963E-04-2.25977582E-04 2.28023161E-05 6.13170725E-06 1.14835361E-09
 3 35 6.04017318E-05-7.53702633E-07 4.84393322E-06-1.02277759E-05 5.98156011E-06
 3 36-9.07888346E-11 6.66086277E-04-3.77037064E-04-9.82342196E-09 3.88942804E-05
 3 37-3.83816203E-05-5.12660057E-07 2.68731432E-05 7.40603568E-09-3.21029592E-09
 3 38 4.27202512E-02 1.70583115E-04-2.18702402E-03 9.32582189E-06 2.43761925E-05
 3 39 4.48677479E-09 1.70299328E-03 3.78479337E-04 1.14937224E-07-5.63605055E-05
 3 40-8.52292152E-05 1.41589721E-04-1.68258524E-05-8.94667876E-09-2.91833342E-08
 3 41 5.01593430E-01 2.84436515E-03-1.58282740E-02-8.19449036E-05-8.80590983E-06
 3 42 1.19278979E-09 2.61453706E-05 9.17830561E-03 8.41618258E-07 9.02995332E-05
 3 43-5.64188060E-05-3.38807272E-05 1.58257423E-04 1.86233809E-08-3.26812208E-09
 3 44 4.41115216E-02-2.41997240E-05 5.81651555E-03 1.00457805E-05-1.03615451E-05
 3 45 3.84438114E-09 1.18573999E-03-3.69181471E-03-2.95525744E-07-1.01230824E-04
 3 46 6.16312642E-06 9.50676979E-05 6.86039543E-06-9.05178849E-09-7.56218633E-09
 3 47-4.32008905E-02 2.35466592E-05-5.79360280E-03-1.47407458E-05 3.68863588E-06
 3 48 2.34852274E-09-3.77858071E-03-8.79453099E-04-2.35458786E-07 2.66295754E-05
 3 49 6.73369252E-05-9.39665005E-05-5.59426034E-05 9.68473087E-10 1.92920863E-08
 3 50-1.29047746E-04-9.55071373E-04 4.96181294E-05-7.84977652E-06 6.22778210E-09
 3 51 1.27870983E-04 9.56468637E-04-3.21625259E-05 3.78871461E-05 4.61714486E-09
 3 52 1.27952355E-04 9.56858413E-04 3.21724001E-05-3.78317001E-05-3.78057523E-09
 3 53-7.72374445E-07 9.10520951E-08 2.41379980E-05-1.37152387E-05 2.44264232E-10
 3 54 1.43205377E-04 2.29293053E-04-7.12721325E-06 2.33125839E-05 2.31315255E-09
 3 55-1.43506898E-04-2.26174200E-04-2.28718771E-05-6.12610535E-06-2.59685024E-09
 3 56-1.28986364E-04-9.54562549E-04-4.96355629E-05 7.81616293E-06-4.86413568E-09
 3 57-7.58783191E-07 1.69611405E-07-2.41273818E-05 1.37196890E-05 1.91409218E-10
 3 58 1.43054686E-04 2.28816649E-04 7.08337369E-06-2.32669197E-05-1.88204357E-09
 4  1-1.00338461E-04-2.02030697E-06 5.64541354E-05 1.86295578E-07 1.10634904E-07
 4  2-2.25252835E-10-1.53661001E-04 1.25049280E-04 6.09325747E-09-3.78838440E-05
 4  3 3.84067951E-05-5.22951121E-07-2.70541281E-05-7.22077820E-09 3.75307865E-09
 4  4-4.27260986E-02-8.47665535E-05 3.62192640E-04 2.66886492E-05 3.66952343E-05
 4  5 7.93903017E-09 2.74261442E-04-3.91263630E-04-3.02306512E-08 4.41013677E-05
 4  6 1.07367497E-04-1.51468864E-04 2.63448919E-05 8.51612917E-09 3.22695308E-08
 4  7-5.02440023E-01-2.44112794E-03 6.66788380E-03-2.52522884E-05-4.11606633E-05
 4  8-7.21965036E-09-5.44363597E-04 2.50596008E-03 2.22321779E-07-1.18975299E-04
 4  9-1.15879405E-05 1.30563239E-04-1.12515193E-04-2.82040063E-08-2.10941566E-08
 4 10-2.74101524E-03-1.66104533E-05 1.21258704E-04 6.64858359E-05-3.92649298E-05
 4 11-2.09384090E-09-3.15278405E-03 2.06913408E-03 5.80359156E-08 9.93732201E-06
 4 12-4.85924517E-06-5.07807685E-06 7.35261974E-06 5.60519943E-09 1.76495940E-09
 4 13 4.88580859E-01 2.37063435E-03-6.41281955E-03 2.17645615E-05 4.25796628E-05
 4 14 1.06672762E-08-2.35747742E-03-1.02427471E-03-1.93947392E-07-4.55441294E-05
 4 15 1.72726095E-04-1.27181965E-04-2.22965203E-06 1.30376786E-08 3.22194320E-08
 4 16 4.15860797E-02 8.87527666E-05-5.50085545E-04-1.81703561E-05-4.20326193E-05
 4 17-6.78934763E-09 3.87485416E-04-6.10788491E-05 1.01134297E-08-6.98539184E-05
 4 18-7.97036109E-05 1.49557529E-04-4.31170840E-05-1.87820265E-08-2.74257274E-08
 4 19-5.87654163E-02-1.21631538E-04-2.08917608E-04-1.54513770E-05 3.01210090E-05
 4 20 1.09522313E-09 2.91452069E-04-5.20431829E-04-3.47593787E-08 1.58487338E-04
 4 21-4.07863055E-05-1.17701033E-04-1.97073546E-05 1.27633464E-08 9.35950145E-09
 4 22 2.71495815E-03 1.65110564E-05-1.21051610E-04 6.66854253E-05-3.93751268E-05
 4 23-2.63249646E-09-3.17821626E-03 2.08366664E-03 5.77096552E-08-9.96335242E-06
 4 24 4.90253297E-06 5.06081945E-06-7.38184560E-06-4.18783962E-09-2.08322647E-09
 4 25-4.89414475E-01-2.37531131E-03 6.43836376E-03 2.17088151E-05 4.27003456E-05
 4 26 1.14507156E-08-2.36995127E-03-1.03179681E-03-2.02921304E-07 4.57595741E-05
 4 27-1.73007052E-04 1.27247478E-04 2.22759885E-06-1.18921645E-08-3.01652274E-08
 4 28-5.76213446E-02-1.13614124E-04-3.63897055E-04-3.27570346E-05-3.47972968E-06
 4 29 1.31472435E-09 6.52756523E-04-4.09668900E-06 2.83799258E-08 2.35605413E-05
 4 30 8.83152975E-05-1.11875839E-04-1.08576480E-04-1.86358558E-09 1.95046636E-08
 4 31-4.16564199E-02-8.90169902E-05 5.53486882E-04-1.81985426E-05-4.20675804E-05
 4 32-6.61767332E-09 3.88371517E-04-6.36554083E-05 1.68382872E-08 6.99587242E-05
 4 33 7.98306407E-05-1.49789365E-04 4.31579765E-05 1.74660459E-08 2.45170146E-08
 4 34-9.00114669E-05-1.99216717E-04 4.14741962E-05-5.96265071E-06-4.29550997E-10
 4 35 9.97680214E-05 2.02747447E-06-5.65036718E-05 1.69025174E-07 1.18640185E-07
 4 36-7.24873191E-11-1.52605991E-04 1.24438396E-04 2.49526145E-09 3.79437187E-05
 4 37-3.84719110E-05 5.28192344E-07 2.70966546E-05 6.68851285E-09-3.20076763E-09
 4 38 4.27907041E-02 8.50463920E-05-3.65804009E-04 2.67025515E-05 3.67298925E-05
 4 39 7.28753174E-09 2.77049347E-04-3.90595675E-04-2.55977434E-08-4.41922047E-05
 4 40-1.07496392E-04 1.51688597E-04-2.63670014E-05-8.13264115E-09-2.99986188E-08
 4 41 5.03198935E-01 2.44549469E-03-6.69280877E-03-2.53784131E-05-4.11741578E-05
 4 42-5.77616107E-09-5.44401343E-04 2.52073928E-03 2.08922837E-07 1.19110503E-04
 4 43 1.14913641E-05-1.30601867E-04 1.12768799E-04 2.71931332E-08 1.93682736E-08
 4 44 5.88308506E-02 1.21595975E-04 2.18084888E-04-1.54317769E-05 3.01021118E-05
 4 45 8.93344896E-10 2.93283910E-04-5.26350499E-04-3.03736051E-08-1.58639561E-04
 4 46 4.07924921E-05 1.17847069E-04 1.97161977E-05-1.22898730E-08-9.01190415E-09
 4 47 5.75468234E-02 1.13651788E-04 3.54526415E-04-3.27771113E-05-3.47555430E-06
 4 48 2.01753695E-09 6.46714334E-04-5.43689618E-06 2.08730754E-08-2.35169409E-05
 4 49-8.82029625E-05 1.11719903E-04 1.08477332E-04 9.52125571E-10-1.99168317E-08
 4 50 4.35220084E-05 2.85245030E-04 1.78019580E-05 2.21561836E-05-9.83061421E-10
 4 51 4.55598432E-05 2.77285276E-04-9.19438892E-06-2.86295116E-05-2.53240774E-09
 4 52-4.53499117E-05-2.75768755E-04-9.14299036E-06-2.86934677E-05-2.86535615E-09
 4 53 1.14459769E-06 6.37044828E-06-4.28895604E-06 1.61678424E-06-3.34013790E-10
 4 54-9.10878249E-05-2.21356537E-04 2.65464372E-05-3.18781134E-05-1.12948394E-09
 4 55 8.97857859E-05 1.98843121E-04 4.14339432E-05-5.96995091E-06 4.47423260E-10
 4 56-4.37209229E-05-2.86780048E-04 1.77251765E-05 2.21710617E-05-7.25920730E-10
 4 57-1.13887665E-06-6.37355599E-06-4.32743512E-06 1.63894790E-06-7.46419202E-11
 4 58 9.13205640E-05 2.21710508E-04 2.65543138E-05-3.19140514E-05-8.74597869E-10
 5  1-6.95150793E-03-1.21743710E-04 2.51034064E-03 1.67716406E-06 2.98001037E-06
 5  2 1.37762791E-09 4.54530114E-04 7.97710203E-04 1.16749799E-07 9.61658485E-06
 5  3 1.42070098E-07-9.75865495E-06-9.26905804E-06 7.04517339E-09 5.81915101E-09
 5  4-2.09908297E-02 9.67116642E-07-1.71843920E-03 1.04915018E-06 1.13196476E-05
 5  5 2.53726752E-09 1.25508135E-03-1.11252343E-03-7.15151676E-08 2.18567806E-05
 5  6 4.15176768E-05-6.33744574E-05 3.71471761E-05 1.38736060E-08 7.93916340E-09
 5  7-1.75180210E-01-1.08857431E-03 5.65627507E-03 3.25050151E-05-3.51255169E-05
 5  8-2.20249178E-09-3.81104883E-03 2.27736973E-03 5.43911811E-08-7.93076419E-05
 5  9-1.11339326E-04 1.90646968E-04-2.91988828E-05-2.36337628E-08-4.01262554E-08
 5 10 6.61031243E-01 3.44819126E-03-1.35215256E-02-2.69330196E-05-4.75645013E-05
 5 11-4.96776707E-09 2.10987015E-03 3.72950900E-03 4.32788985E-07 4.84132222E-05
 5 12-1.57268388E-05-3.26863834E-05-6.23154411E-05-1.03562117E-09-1.66052939E-09
 5 13-1.74688846E-01-1.08569913E-03 5.63957971E-03-4.68300352E-05 1.01076319E-05
 5 14 2.51207305E-09 3.89569175E-03-2.11811817E-03-3.46690696E-08-8.08781840E-05
 5 15-1.09724941E-04 1.90603125E-04-3.02083060E-05-1.82344819E-08-3.81562197E-08
 5 16-2.09414225E-02 1.20131379E-06-1.72134796E-03 9.19270427E-06 6.66341278E-06
 5 17 4.43416190E-09-1.59704542E-03 5.08013509E-04-3.54951453E-08 8.07039814E-06
 5 18 5.51607528E-05-6.32311509E-05 2.77244339E-05 4.87843804E-10 1.40988929E-08
 5 19-4.20793138E-02-2.27489293E-04 1.94901797E-03-3.24131568E-05-2.96226044E-06
 5 20 4.10657120E-09-5.84795634E-04-6.70255349E-04-8.82317319E-08 8.47597799E-05
 5 21-8.76127954E-06-7.59985003E-05-3.09426343E-07-2.90268798E-10 1.98332198E-08
 5 22 6.61029220E-01 3.44818000E-03-1.35215036E-02 2.69332516E-05 4.75634487E-05
 5 23 5.06638525E-09-2.10988679E-03-3.72945535E-03-4.22912671E-07 4.84124471E-05
 5 24-1.57285172E-05-3.26839299E-05-6.23147696E-05 9.15903974E-11-2.13885220E-09
 5 25-1.74692379E-01-1.08571588E-03 5.63962811E-03 4.68300142E-05-1.01077361E-05
 5 26-1.87216201E-09-3.89570484E-03 2.11808829E-03 2.10953674E-08-8.08762340E-05
 5 27-1.09726249E-04 1.90602483E-04-3.02075911E-05-1.71048594E-08-3.72319082E-08
 5 28-4.20359330E-02-2.27535174E-04 1.95516160E-03-1.40346112E-05 2.93887096E-05
 5 29 2.20467651E-09 2.73300279E-04 8.44196421E-04 8.93991244E-08 1.58613869E-05
 5 30 6.00377941E-05-7.58991810E-05-4.75779294E-05 6.47049076E-09 1.87798923E-08
 5 31-2.09414596E-02 1.20094130E-06-1.72133410E-03-9.19267822E-06-6.66369530E-06
 5 32-3.91672520E-09 1.59704219E-03-5.08020308E-04 3.60569238E-08 8.07061214E-06
 5 33 5.51611682E-05-6.32317803E-05 2.77259540E-05 6.70841754E-10 1.27256590E-08
 5 34-8.58255301E-05-4.47294241E-04-1.92213956E-05-4.37812460E-07-8.36437436E-10
 5 35-6.95130414E-03-1.21742893E-04 2.51033482E-03-1.67658144E-06-2.98028690E-06
 5 36-3.90544496E-10-4.54527968E-04-7.97708530E-04-1.11346930E-07 9.61651188E-06
 5 37 1.42145945E-07-9.75865783E-06-9.26927389E-06 6.80992781E-09 5.99601124E-09
 5 38-2.09900845E-02 9.70022862E-07-1.71843651E-03-1.04901321E-06-1.13194533E-05
 5 39-2.26293377E-09-1.25507274E-03 1.11251839E-03 6.62037523E-08 2.18572621E-05
 5 40 4.15161166E-05-6.33733788E-05 3.71455963E-05 1.25843979E-08 7.07077003E-09
 5 41-1.75175861E-01-1.08855146E-03 5.65620549E-03-3.25049203E-05 3.51244596E-05
 5 42 2.62323549E-09 3.81100871E-03-2.27734202E-03-5.27579150E-08-7.93051897E-05
 5 43-1.11339675E-04 1.90644865E-04-2.91977001E-05-2.31305684E-08-3.89295049E-08
 5 44-4.20783728E-02-2.27486094E-04 1.94898524E-03 3.24124216E-05 2.96252108E-06
 5 45-4.21534471E-09 5.84783033E-04 6.70258158E-04 8.48564964E-08 8.47582284E-05
 5 46-8.76175665E-06-7.59964718E-05-3.08857755E-07-4.55680325E-10 1.93732935E-08
 5 47-4.20347360E-02-2.27532099E-04 1.95518235E-03 1.40341192E-05-2.93886205E-05
 5 48-3.40268786E-09-2.73285549E-04-8.44201828E-04-8.50631907E-08 1.58623320E-05
 5 49 6.00371964E-05-7.58995284E-05-4.75763779E-05 6.88802001E-09 1.84230934E-08
 5 50-1.04535357E-04-1.59536572E-04 8.43379237E-06 2.23038028E-06 4.16947208E-09
 5 51-1.04672795E-04-1.60538965E-04 2.40200219E-06-8.44405463E-06-6.30454285E-09
 5 52-1.04673613E-04-1.60537846E-04-2.40117008E-06 8.44367641E-06 5.90810717E-09
 5 53-2.07998094E-05 1.72672698E-04-8.07779441E-06-1.41624000E-05-1.43153980E-09
 5 54-8.59907944E-05-4.47588261E-04-9.45072146E-06 1.67225233E-05 8.24147014E-11
 5 55-8.58252623E-05-4.47294199E-04 1.92216250E-05 4.37052797E-07 6.37354667E-10
 5 56-1.04535011E-04-1.59541795E-04-8.43475995E-06-2.22962633E-06-3.78999416E-09
 5 57-2.07998540E-05 1.72672496E-04 8.07796930E-06 1.41622583E-05 1.41541270E-09
 5 58-8.59905346E-05-4.47583610E-04 9.45128094E-06-1.67219455E-05-6.81173408E-10
 6  1 8.47552849E-03 9.63963223E-06 1.03615130E-03 9.15370738E-06 1.60499330E-05
 6  2-4.05551094E-09 3.96003421E-04 6.95729070E-04 1.00184035E-07 3.57082697E-05
 6  3 1.71162307E-05-5.28245004E-05-1.80114638E-05-2.20957752E-09 5.10601223E-09
 6  4 1.94395746E-02 1.09323224E-04-2.49480925E-03-2.38496763E-05-4.96462265E-05
 6  5-5.46683843E-09-5.09530452E-05-9.47571995E-04-1.05082150E-07-4.89069463E-05
 6  6-6.25585359E-05 1.11465482E-04-4.26428384E-05-1.53561590E-08-2.12875259E-08
 6  7 1.23732014E-01 6.47811382E-04-1.17612570E-03-1.29869152E-05 8.53740424E-05
 6  8 1.00470561E-08-2.10918727E-03-2.25239947E-03-3.07223627E-07 1.39251634E-04
 6  9 2.08610778E-04-3.47862412E-04-8.95247119E-05 1.36686075E-08 5.81374727E-08
 6 10-6.85922114E-01-3.70755601E-03 1.42061284E-02-5.78194646E-05-1.01552424E-04
 6 11-1.52177037E-08 3.02665765E-03 5.31819450E-03 6.33360137E-07-2.63581438E-04
 6 12-3.01703028E-04 5.65284466E-04-3.70217044E-05-4.51385660E-08-9.45470853E-08
 6 13 1.23510448E-01 6.46701739E-04-1.17320356E-03 8.00130143E-05 3.24000116E-05
 6 14 5.71288616E-09-8.57470152E-04-2.96315754E-03-3.18105080E-07 2.58580776E-04
 6 15 8.92242176E-05-3.47804994E-04-7.61734025E-06 2.74090503E-08 4.53384167E-08
 6 16 1.94174115E-02 1.09256128E-04-2.49409825E-03-3.04815698E-05-4.58491857E-05
 6 17-7.42243477E-09-7.88449437E-04-5.28093960E-04-9.67557603E-08-2.65049874E-05
 6 18-8.48815290E-05 1.11386516E-04-2.73191243E-05-8.95379876E-09-2.38480319E-08
 6 19 2.16582453E-02-6.83185795E-06 2.06245392E-03 1.84166068E-05-5.60676544E-06
 6 20 7.39655534E-10-7.36909555E-04 8.07457421E-04 4.08348579E-08-8.59688453E-05
 6 21 1.25296912E-05 7.34391541E-05-2.52993738E-05-1.05680815E-08-1.10969675E-08
 6 22 6.85924160E-01 3.70756434E-03-1.42061728E-02-5.78184422E-05-1.01553712E-04
 6 23-1.55001299E-08 3.02658670E-03 5.31821614E-03 6.33890499E-07 2.63582802E-04
 6 24 3.01701316E-04-5.65284118E-04 3.70234148E-05 4.52745560E-08 9.30773687E-08
 6 25-1.23512931E-01-6.46717103E-04 1.17328853E-03 8.00137623E-05 3.24000863E-05
 6 26 6.96662996E-09-8.57517241E-04-2.96315787E-03-3.13872789E-07-2.58579629E-04
 6 27-8.92255154E-05 3.47805144E-04 7.61836555E-06-2.68644295E-08-4.29190047E-08
 6 28-2.16034579E-02 7.00866056E-06-2.06218849E-03-1.42253670E-05 1.29586209E-05
 6 29 6.27434145E-09 1.07028794E-03-2.20830485E-04 2.49146504E-08-6.07741696E-06
 6 30 7.94620635E-05-7.33846466E-05-3.78359401E-05-9.11329499E-09 1.79513661E-08
 6 31-1.94173883E-02-1.09256707E-04 2.49409546E-03-3.04816501E-05-4.58489747E-05
 6 32-6.65002240E-09-7.88441536E-04-5.28096022E-04-8.58575852E-08 2.65053584E-05
 6 33 8.48819049E-05-1.11387263E-04 2.73201192E-05 8.01432261E-09 2.10968242E-08
 6 34-3.07151485E-05 1.38043215E-04 2.73667597E-05 7.63173194E-06 3.56366863E-09
 6 35-8.47525541E-03-9.63925098E-06-1.03614209E-03 9.15402729E-06 1.60498099E-05
 6 36-3.41974615E-09 3.95998612E-04 6.95728000E-04 9.21478389E-08-3.57084821E-05
 6 37-1.71160268E-05 5.28245089E-05 1.80112619E-05 1.86881344E-09-4.39284293E-09
 6 38-1.94389603E-02-1.09319407E-04 2.49479853E-03-2.38500108E-05-4.96462843E-05
 6 39-5.17357862E-09-5.09585801E-05-9.47570607E-04-9.65807764E-08 4.89078504E-05
 6 40 6.25574122E-05-1.11465263E-04 4.26421945E-05 1.39345380E-08 1.94407053E-08
 6 41-1.23730265E-01-6.47799368E-04 1.17606115E-03-1.29872130E-05 8.53725734E-05
 6 42 9.28857790E-09-2.10917822E-03-2.25237507E-03-2.97505241E-07-1.39250088E-04
 6 43-2.08612654E-04 3.47862742E-04 8.95250728E-05-1.47129067E-08-5.51645480E-08
 6 44-2.16581520E-02 6.83078379E-06-2.06242590E-03 1.84158062E-05-5.60700203E-06
 6 45 5.42318186E-10-7.36903887E-04 8.07446455E-04 4.20397760E-08 8.59681930E-05
 6 46-1.25292195E-05-7.34389735E-05 2.52993871E-05 9.59423765E-09 1.00633302E-08
 6 47 2.16025641E-02-7.01250718E-06 2.06218897E-03-1.42251432E-05 1.29585108E-05
 6 48 6.68237486E-09 1.07027691E-03-2.20841336E-04 2.02693392E-08 6.07710425E-06
 6 49-7.94613886E-05 7.33842843E-05 3.78349757E-05 8.57401144E-09-1.83765266E-08
 6 50 8.15130103E-06 2.87470489E-04-1.76578832E-05 6.89033693E-06 2.24011997E-09
 6 51-8.16998985E-06-2.87638548E-04 1.49471951E-05-1.16530148E-05-1.59126154E-09
 6 52 8.17003107E-06 2.87640797E-04 1.49474345E-05-1.16531464E-05-1.10932377E-09
 6 53 3.18914022E-05 1.87176020E-04-1.23005067E-05-2.16188013E-05-5.93259854E-09
 6 54 3.07586117E-05-1.38005821E-04-7.43187841E-06 2.74471545E-05 4.59186713E-09
 6 55 3.07141904E-05-1.38045095E-04 2.73668433E-05 7.63226272E-06 4.03705248E-09
 6 56-8.15157970E-06-2.87474794E-04-1.76585172E-05 6.89042522E-06 2.69281040E-09
 6 57-3.18915608E-05-1.87175119E-04-1.23003547E-05-2.16188025E-05-5.56088631E-09
 6 58-3.07589013E-05 1.38005963E-04-7.43140450E-06 2.74476717E-05 4.25917302E-09