! RKS B3LYP SlowConv TightSCF def2-TZVP(-f) Normalprint Opt PAL8 ZORA Grid5

%scf
 MaxIter 500
 TolE 1E-7
 TolErr 1E-6
end

*xyz 0 1
 xyz coordinates from X-ray structure
*
