 $SYSTEM MWORDS=600 TIMLIM=1440  $END

 $CONTRL ISPHER=1 SCFTYP=None RUNTYP=Energy CITYP=GENCI  $END

 $BASIS GBASIS=CCD  $END

 $CIGEN PURES=.TRUE. NFLGDM(1)=1,1 GLIST=INPUT NCORE=40 ITERMX=1000 
 NACT=14 NELS=14 NSTATE=5 PRTTOL=0.00  $END

 $GUESS GUESS=MOREAD NORB=246 NORDER=1 IORDER(40)=42 IORDER(42)=40 
 IORDER(37)=41 IORDER(41)=37 IORDER(51)=57 IORDER(57)=51 IORDER(52)=63 
 IORDER(63)=52 IORDER(53)=65 IORDER(65)=53  $END

 $DATA 
 anthracene RHF
 C1
 C  6  -11.089332     0.908499    -0.014377
 C  6   -9.726938     0.909422    -0.009475
 C  6   -8.996001     2.125844    -0.010162
 C  6   -9.724614     3.365511    -0.016133
 C  6  -11.142944     3.318371    -0.021114
 C  6  -11.806348     2.128431    -0.020283
 C  6   -7.604230     2.159918    -0.005319
 C  6   -9.017896     4.565071    -0.016863
 C  6   -7.626124     4.599145    -0.012008
 C  6   -6.897511     3.359477    -0.006088
 C  6   -5.479180     3.406615    -0.001227
 H  1   -4.932631     2.470890     0.003200
 C  6   -4.815775     4.596554    -0.002117
 C  6   -5.532791     5.816487    -0.007921
 C  6   -6.895186     5.815567    -0.012699
 H  1   -7.054377     1.224701    -0.000832
 H  1  -11.631981    -0.028058    -0.013791
 H  1   -9.175010    -0.023154    -0.004936
 H  1  -11.689491     4.254096    -0.025604
 H  1  -12.888582     2.109763    -0.024140
 H  1   -9.567738     5.500294    -0.021335
 H  1   -3.733540     4.615225     0.001642
 H  1   -4.990147     6.753047    -0.008550
 H  1   -7.447110     6.748145    -0.017127
 $END

 $GCILST 
 834
 2 2 2 2 2 2 2 0 0 0 0 0 0 0 
 0 2 2 2 2 2 2 0 0 0 0 0 0 2 
 0 2 2 2 2 2 2 0 0 0 0 0 1 1 
 0 2 2 2 2 2 2 0 0 0 0 0 2 0 
 0 2 2 2 2 2 2 0 0 0 0 1 0 1 
 0 2 2 2 2 2 2 0 0 0 0 1 1 0 
 0 2 2 2 2 2 2 0 0 0 0 2 0 0 
 0 2 2 2 2 2 2 0 0 0 1 0 0 1 
 0 2 2 2 2 2 2 0 0 0 1 0 1 0 
 0 2 2 2 2 2 2 0 0 0 1 1 0 0 
 0 2 2 2 2 2 2 0 0 0 2 0 0 0 
 0 2 2 2 2 2 2 0 0 1 0 0 0 1 
 0 2 2 2 2 2 2 0 0 1 0 0 1 0 
 0 2 2 2 2 2 2 0 0 1 0 1 0 0 
 0 2 2 2 2 2 2 0 0 1 1 0 0 0 
 0 2 2 2 2 2 2 0 0 2 0 0 0 0 
 0 2 2 2 2 2 2 0 1 0 0 0 0 1 
 0 2 2 2 2 2 2 0 1 0 0 0 1 0 
 0 2 2 2 2 2 2 0 1 0 0 1 0 0 
 0 2 2 2 2 2 2 0 1 0 1 0 0 0 
 0 2 2 2 2 2 2 0 1 1 0 0 0 0 
 0 2 2 2 2 2 2 0 2 0 0 0 0 0 
 0 2 2 2 2 2 2 1 0 0 0 0 0 1 
 0 2 2 2 2 2 2 1 0 0 0 0 1 0 
 0 2 2 2 2 2 2 1 0 0 0 1 0 0 
 0 2 2 2 2 2 2 1 0 0 1 0 0 0 
 0 2 2 2 2 2 2 1 0 1 0 0 0 0 
 0 2 2 2 2 2 2 1 1 0 0 0 0 0 
 0 2 2 2 2 2 2 2 0 0 0 0 0 0 
 1 1 2 2 2 2 2 0 0 0 0 0 0 2 
 1 1 2 2 2 2 2 0 0 0 0 0 1 1 
 1 1 2 2 2 2 2 0 0 0 0 0 2 0 
 1 1 2 2 2 2 2 0 0 0 0 1 0 1 
 1 1 2 2 2 2 2 0 0 0 0 1 1 0 
 1 1 2 2 2 2 2 0 0 0 0 2 0 0 
 1 1 2 2 2 2 2 0 0 0 1 0 0 1 
 1 1 2 2 2 2 2 0 0 0 1 0 1 0 
 1 1 2 2 2 2 2 0 0 0 1 1 0 0 
 1 1 2 2 2 2 2 0 0 0 2 0 0 0 
 1 1 2 2 2 2 2 0 0 1 0 0 0 1 
 1 1 2 2 2 2 2 0 0 1 0 0 1 0 
 1 1 2 2 2 2 2 0 0 1 0 1 0 0 
 1 1 2 2 2 2 2 0 0 1 1 0 0 0 
 1 1 2 2 2 2 2 0 0 2 0 0 0 0 
 1 1 2 2 2 2 2 0 1 0 0 0 0 1 
 1 1 2 2 2 2 2 0 1 0 0 0 1 0 
 1 1 2 2 2 2 2 0 1 0 0 1 0 0 
 1 1 2 2 2 2 2 0 1 0 1 0 0 0 
 1 1 2 2 2 2 2 0 1 1 0 0 0 0 
 1 1 2 2 2 2 2 0 2 0 0 0 0 0 
 1 1 2 2 2 2 2 1 0 0 0 0 0 1 
 1 1 2 2 2 2 2 1 0 0 0 0 1 0 
 1 1 2 2 2 2 2 1 0 0 0 1 0 0 
 1 1 2 2 2 2 2 1 0 0 1 0 0 0 
 1 1 2 2 2 2 2 1 0 1 0 0 0 0 
 1 1 2 2 2 2 2 1 1 0 0 0 0 0 
 1 1 2 2 2 2 2 2 0 0 0 0 0 0 
 1 2 1 2 2 2 2 0 0 0 0 0 0 2 
 1 2 1 2 2 2 2 0 0 0 0 0 1 1 
 1 2 1 2 2 2 2 0 0 0 0 0 2 0 
 1 2 1 2 2 2 2 0 0 0 0 1 0 1 
 1 2 1 2 2 2 2 0 0 0 0 1 1 0 
 1 2 1 2 2 2 2 0 0 0 0 2 0 0 
 1 2 1 2 2 2 2 0 0 0 1 0 0 1 
 1 2 1 2 2 2 2 0 0 0 1 0 1 0 
 1 2 1 2 2 2 2 0 0 0 1 1 0 0 
 1 2 1 2 2 2 2 0 0 0 2 0 0 0 
 1 2 1 2 2 2 2 0 0 1 0 0 0 1 
 1 2 1 2 2 2 2 0 0 1 0 0 1 0 
 1 2 1 2 2 2 2 0 0 1 0 1 0 0 
 1 2 1 2 2 2 2 0 0 1 1 0 0 0 
 1 2 1 2 2 2 2 0 0 2 0 0 0 0 
 1 2 1 2 2 2 2 0 1 0 0 0 0 1 
 1 2 1 2 2 2 2 0 1 0 0 0 1 0 
 1 2 1 2 2 2 2 0 1 0 0 1 0 0 
 1 2 1 2 2 2 2 0 1 0 1 0 0 0 
 1 2 1 2 2 2 2 0 1 1 0 0 0 0 
 1 2 1 2 2 2 2 0 2 0 0 0 0 0 
 1 2 1 2 2 2 2 1 0 0 0 0 0 1 
 1 2 1 2 2 2 2 1 0 0 0 0 1 0 
 1 2 1 2 2 2 2 1 0 0 0 1 0 0 
 1 2 1 2 2 2 2 1 0 0 1 0 0 0 
 1 2 1 2 2 2 2 1 0 1 0 0 0 0 
 1 2 1 2 2 2 2 1 1 0 0 0 0 0 
 1 2 1 2 2 2 2 2 0 0 0 0 0 0 
 1 2 2 1 2 2 2 0 0 0 0 0 0 2 
 1 2 2 1 2 2 2 0 0 0 0 0 1 1 
 1 2 2 1 2 2 2 0 0 0 0 0 2 0 
 1 2 2 1 2 2 2 0 0 0 0 1 0 1 
 1 2 2 1 2 2 2 0 0 0 0 1 1 0 
 1 2 2 1 2 2 2 0 0 0 0 2 0 0 
 1 2 2 1 2 2 2 0 0 0 1 0 0 1 
 1 2 2 1 2 2 2 0 0 0 1 0 1 0 
 1 2 2 1 2 2 2 0 0 0 1 1 0 0 
 1 2 2 1 2 2 2 0 0 0 2 0 0 0 
 1 2 2 1 2 2 2 0 0 1 0 0 0 1 
 1 2 2 1 2 2 2 0 0 1 0 0 1 0 
 1 2 2 1 2 2 2 0 0 1 0 1 0 0 
 1 2 2 1 2 2 2 0 0 1 1 0 0 0 
 1 2 2 1 2 2 2 0 0 2 0 0 0 0 
 1 2 2 1 2 2 2 0 1 0 0 0 0 1 
 1 2 2 1 2 2 2 0 1 0 0 0 1 0 
 1 2 2 1 2 2 2 0 1 0 0 1 0 0 
 1 2 2 1 2 2 2 0 1 0 1 0 0 0 
 1 2 2 1 2 2 2 0 1 1 0 0 0 0 
 1 2 2 1 2 2 2 0 2 0 0 0 0 0 
 1 2 2 1 2 2 2 1 0 0 0 0 0 1 
 1 2 2 1 2 2 2 1 0 0 0 0 1 0 
 1 2 2 1 2 2 2 1 0 0 0 1 0 0 
 1 2 2 1 2 2 2 1 0 0 1 0 0 0 
 1 2 2 1 2 2 2 1 0 1 0 0 0 0 
 1 2 2 1 2 2 2 1 1 0 0 0 0 0 
 1 2 2 1 2 2 2 2 0 0 0 0 0 0 
 1 2 2 2 1 2 2 0 0 0 0 0 0 2 
 1 2 2 2 1 2 2 0 0 0 0 0 1 1 
 1 2 2 2 1 2 2 0 0 0 0 0 2 0 
 1 2 2 2 1 2 2 0 0 0 0 1 0 1 
 1 2 2 2 1 2 2 0 0 0 0 1 1 0 
 1 2 2 2 1 2 2 0 0 0 0 2 0 0 
 1 2 2 2 1 2 2 0 0 0 1 0 0 1 
 1 2 2 2 1 2 2 0 0 0 1 0 1 0 
 1 2 2 2 1 2 2 0 0 0 1 1 0 0 
 1 2 2 2 1 2 2 0 0 0 2 0 0 0 
 1 2 2 2 1 2 2 0 0 1 0 0 0 1 
 1 2 2 2 1 2 2 0 0 1 0 0 1 0 
 1 2 2 2 1 2 2 0 0 1 0 1 0 0 
 1 2 2 2 1 2 2 0 0 1 1 0 0 0 
 1 2 2 2 1 2 2 0 0 2 0 0 0 0 
 1 2 2 2 1 2 2 0 1 0 0 0 0 1 
 1 2 2 2 1 2 2 0 1 0 0 0 1 0 
 1 2 2 2 1 2 2 0 1 0 0 1 0 0 
 1 2 2 2 1 2 2 0 1 0 1 0 0 0 
 1 2 2 2 1 2 2 0 1 1 0 0 0 0 
 1 2 2 2 1 2 2 0 2 0 0 0 0 0 
 1 2 2 2 1 2 2 1 0 0 0 0 0 1 
 1 2 2 2 1 2 2 1 0 0 0 0 1 0 
 1 2 2 2 1 2 2 1 0 0 0 1 0 0 
 1 2 2 2 1 2 2 1 0 0 1 0 0 0 
 1 2 2 2 1 2 2 1 0 1 0 0 0 0 
 1 2 2 2 1 2 2 1 1 0 0 0 0 0 
 1 2 2 2 1 2 2 2 0 0 0 0 0 0 
 1 2 2 2 2 1 2 0 0 0 0 0 0 2 
 1 2 2 2 2 1 2 0 0 0 0 0 1 1 
 1 2 2 2 2 1 2 0 0 0 0 0 2 0 
 1 2 2 2 2 1 2 0 0 0 0 1 0 1 
 1 2 2 2 2 1 2 0 0 0 0 1 1 0 
 1 2 2 2 2 1 2 0 0 0 0 2 0 0 
 1 2 2 2 2 1 2 0 0 0 1 0 0 1 
 1 2 2 2 2 1 2 0 0 0 1 0 1 0 
 1 2 2 2 2 1 2 0 0 0 1 1 0 0 
 1 2 2 2 2 1 2 0 0 0 2 0 0 0 
 1 2 2 2 2 1 2 0 0 1 0 0 0 1 
 1 2 2 2 2 1 2 0 0 1 0 0 1 0 
 1 2 2 2 2 1 2 0 0 1 0 1 0 0 
 1 2 2 2 2 1 2 0 0 1 1 0 0 0 
 1 2 2 2 2 1 2 0 0 2 0 0 0 0 
 1 2 2 2 2 1 2 0 1 0 0 0 0 1 
 1 2 2 2 2 1 2 0 1 0 0 0 1 0 
 1 2 2 2 2 1 2 0 1 0 0 1 0 0 
 1 2 2 2 2 1 2 0 1 0 1 0 0 0 
 1 2 2 2 2 1 2 0 1 1 0 0 0 0 
 1 2 2 2 2 1 2 0 2 0 0 0 0 0 
 1 2 2 2 2 1 2 1 0 0 0 0 0 1 
 1 2 2 2 2 1 2 1 0 0 0 0 1 0 
 1 2 2 2 2 1 2 1 0 0 0 1 0 0 
 1 2 2 2 2 1 2 1 0 0 1 0 0 0 
 1 2 2 2 2 1 2 1 0 1 0 0 0 0 
 1 2 2 2 2 1 2 1 1 0 0 0 0 0 
 1 2 2 2 2 1 2 2 0 0 0 0 0 0 
 1 2 2 2 2 2 1 0 0 0 0 0 0 2 
 1 2 2 2 2 2 1 0 0 0 0 0 1 1 
 1 2 2 2 2 2 1 0 0 0 0 0 2 0 
 1 2 2 2 2 2 1 0 0 0 0 1 0 1 
 1 2 2 2 2 2 1 0 0 0 0 1 1 0 
 1 2 2 2 2 2 1 0 0 0 0 2 0 0 
 1 2 2 2 2 2 1 0 0 0 1 0 0 1 
 1 2 2 2 2 2 1 0 0 0 1 0 1 0 
 1 2 2 2 2 2 1 0 0 0 1 1 0 0 
 1 2 2 2 2 2 1 0 0 0 2 0 0 0 
 1 2 2 2 2 2 1 0 0 1 0 0 0 1 
 1 2 2 2 2 2 1 0 0 1 0 0 1 0 
 1 2 2 2 2 2 1 0 0 1 0 1 0 0 
 1 2 2 2 2 2 1 0 0 1 1 0 0 0 
 1 2 2 2 2 2 1 0 0 2 0 0 0 0 
 1 2 2 2 2 2 1 0 1 0 0 0 0 1 
 1 2 2 2 2 2 1 0 1 0 0 0 1 0 
 1 2 2 2 2 2 1 0 1 0 0 1 0 0 
 1 2 2 2 2 2 1 0 1 0 1 0 0 0 
 1 2 2 2 2 2 1 0 1 1 0 0 0 0 
 1 2 2 2 2 2 1 0 2 0 0 0 0 0 
 1 2 2 2 2 2 1 1 0 0 0 0 0 1 
 1 2 2 2 2 2 1 1 0 0 0 0 1 0 
 1 2 2 2 2 2 1 1 0 0 0 1 0 0 
 1 2 2 2 2 2 1 1 0 0 1 0 0 0 
 1 2 2 2 2 2 1 1 0 1 0 0 0 0 
 1 2 2 2 2 2 1 1 1 0 0 0 0 0 
 1 2 2 2 2 2 1 2 0 0 0 0 0 0 
 1 2 2 2 2 2 2 0 0 0 0 0 0 1 
 1 2 2 2 2 2 2 0 0 0 0 0 1 0 
 1 2 2 2 2 2 2 0 0 0 0 1 0 0 
 1 2 2 2 2 2 2 0 0 0 1 0 0 0 
 1 2 2 2 2 2 2 0 0 1 0 0 0 0 
 1 2 2 2 2 2 2 0 1 0 0 0 0 0 
 1 2 2 2 2 2 2 1 0 0 0 0 0 0 
 2 0 2 2 2 2 2 0 0 0 0 0 0 2 
 2 0 2 2 2 2 2 0 0 0 0 0 1 1 
 2 0 2 2 2 2 2 0 0 0 0 0 2 0 
 2 0 2 2 2 2 2 0 0 0 0 1 0 1 
 2 0 2 2 2 2 2 0 0 0 0 1 1 0 
 2 0 2 2 2 2 2 0 0 0 0 2 0 0 
 2 0 2 2 2 2 2 0 0 0 1 0 0 1 
 2 0 2 2 2 2 2 0 0 0 1 0 1 0 
 2 0 2 2 2 2 2 0 0 0 1 1 0 0 
 2 0 2 2 2 2 2 0 0 0 2 0 0 0 
 2 0 2 2 2 2 2 0 0 1 0 0 0 1 
 2 0 2 2 2 2 2 0 0 1 0 0 1 0 
 2 0 2 2 2 2 2 0 0 1 0 1 0 0 
 2 0 2 2 2 2 2 0 0 1 1 0 0 0 
 2 0 2 2 2 2 2 0 0 2 0 0 0 0 
 2 0 2 2 2 2 2 0 1 0 0 0 0 1 
 2 0 2 2 2 2 2 0 1 0 0 0 1 0 
 2 0 2 2 2 2 2 0 1 0 0 1 0 0 
 2 0 2 2 2 2 2 0 1 0 1 0 0 0 
 2 0 2 2 2 2 2 0 1 1 0 0 0 0 
 2 0 2 2 2 2 2 0 2 0 0 0 0 0 
 2 0 2 2 2 2 2 1 0 0 0 0 0 1 
 2 0 2 2 2 2 2 1 0 0 0 0 1 0 
 2 0 2 2 2 2 2 1 0 0 0 1 0 0 
 2 0 2 2 2 2 2 1 0 0 1 0 0 0 
 2 0 2 2 2 2 2 1 0 1 0 0 0 0 
 2 0 2 2 2 2 2 1 1 0 0 0 0 0 
 2 0 2 2 2 2 2 2 0 0 0 0 0 0 
 2 1 1 2 2 2 2 0 0 0 0 0 0 2 
 2 1 1 2 2 2 2 0 0 0 0 0 1 1 
 2 1 1 2 2 2 2 0 0 0 0 0 2 0 
 2 1 1 2 2 2 2 0 0 0 0 1 0 1 
 2 1 1 2 2 2 2 0 0 0 0 1 1 0 
 2 1 1 2 2 2 2 0 0 0 0 2 0 0 
 2 1 1 2 2 2 2 0 0 0 1 0 0 1 
 2 1 1 2 2 2 2 0 0 0 1 0 1 0 
 2 1 1 2 2 2 2 0 0 0 1 1 0 0 
 2 1 1 2 2 2 2 0 0 0 2 0 0 0 
 2 1 1 2 2 2 2 0 0 1 0 0 0 1 
 2 1 1 2 2 2 2 0 0 1 0 0 1 0 
 2 1 1 2 2 2 2 0 0 1 0 1 0 0 
 2 1 1 2 2 2 2 0 0 1 1 0 0 0 
 2 1 1 2 2 2 2 0 0 2 0 0 0 0 
 2 1 1 2 2 2 2 0 1 0 0 0 0 1 
 2 1 1 2 2 2 2 0 1 0 0 0 1 0 
 2 1 1 2 2 2 2 0 1 0 0 1 0 0 
 2 1 1 2 2 2 2 0 1 0 1 0 0 0 
 2 1 1 2 2 2 2 0 1 1 0 0 0 0 
 2 1 1 2 2 2 2 0 2 0 0 0 0 0 
 2 1 1 2 2 2 2 1 0 0 0 0 0 1 
 2 1 1 2 2 2 2 1 0 0 0 0 1 0 
 2 1 1 2 2 2 2 1 0 0 0 1 0 0 
 2 1 1 2 2 2 2 1 0 0 1 0 0 0 
 2 1 1 2 2 2 2 1 0 1 0 0 0 0 
 2 1 1 2 2 2 2 1 1 0 0 0 0 0 
 2 1 1 2 2 2 2 2 0 0 0 0 0 0 
 2 1 2 1 2 2 2 0 0 0 0 0 0 2 
 2 1 2 1 2 2 2 0 0 0 0 0 1 1 
 2 1 2 1 2 2 2 0 0 0 0 0 2 0 
 2 1 2 1 2 2 2 0 0 0 0 1 0 1 
 2 1 2 1 2 2 2 0 0 0 0 1 1 0 
 2 1 2 1 2 2 2 0 0 0 0 2 0 0 
 2 1 2 1 2 2 2 0 0 0 1 0 0 1 
 2 1 2 1 2 2 2 0 0 0 1 0 1 0 
 2 1 2 1 2 2 2 0 0 0 1 1 0 0 
 2 1 2 1 2 2 2 0 0 0 2 0 0 0 
 2 1 2 1 2 2 2 0 0 1 0 0 0 1 
 2 1 2 1 2 2 2 0 0 1 0 0 1 0 
 2 1 2 1 2 2 2 0 0 1 0 1 0 0 
 2 1 2 1 2 2 2 0 0 1 1 0 0 0 
 2 1 2 1 2 2 2 0 0 2 0 0 0 0 
 2 1 2 1 2 2 2 0 1 0 0 0 0 1 
 2 1 2 1 2 2 2 0 1 0 0 0 1 0 
 2 1 2 1 2 2 2 0 1 0 0 1 0 0 
 2 1 2 1 2 2 2 0 1 0 1 0 0 0 
 2 1 2 1 2 2 2 0 1 1 0 0 0 0 
 2 1 2 1 2 2 2 0 2 0 0 0 0 0 
 2 1 2 1 2 2 2 1 0 0 0 0 0 1 
 2 1 2 1 2 2 2 1 0 0 0 0 1 0 
 2 1 2 1 2 2 2 1 0 0 0 1 0 0 
 2 1 2 1 2 2 2 1 0 0 1 0 0 0 
 2 1 2 1 2 2 2 1 0 1 0 0 0 0 
 2 1 2 1 2 2 2 1 1 0 0 0 0 0 
 2 1 2 1 2 2 2 2 0 0 0 0 0 0 
 2 1 2 2 1 2 2 0 0 0 0 0 0 2 
 2 1 2 2 1 2 2 0 0 0 0 0 1 1 
 2 1 2 2 1 2 2 0 0 0 0 0 2 0 
 2 1 2 2 1 2 2 0 0 0 0 1 0 1 
 2 1 2 2 1 2 2 0 0 0 0 1 1 0 
 2 1 2 2 1 2 2 0 0 0 0 2 0 0 
 2 1 2 2 1 2 2 0 0 0 1 0 0 1 
 2 1 2 2 1 2 2 0 0 0 1 0 1 0 
 2 1 2 2 1 2 2 0 0 0 1 1 0 0 
 2 1 2 2 1 2 2 0 0 0 2 0 0 0 
 2 1 2 2 1 2 2 0 0 1 0 0 0 1 
 2 1 2 2 1 2 2 0 0 1 0 0 1 0 
 2 1 2 2 1 2 2 0 0 1 0 1 0 0 
 2 1 2 2 1 2 2 0 0 1 1 0 0 0 
 2 1 2 2 1 2 2 0 0 2 0 0 0 0 
 2 1 2 2 1 2 2 0 1 0 0 0 0 1 
 2 1 2 2 1 2 2 0 1 0 0 0 1 0 
 2 1 2 2 1 2 2 0 1 0 0 1 0 0 
 2 1 2 2 1 2 2 0 1 0 1 0 0 0 
 2 1 2 2 1 2 2 0 1 1 0 0 0 0 
 2 1 2 2 1 2 2 0 2 0 0 0 0 0 
 2 1 2 2 1 2 2 1 0 0 0 0 0 1 
 2 1 2 2 1 2 2 1 0 0 0 0 1 0 
 2 1 2 2 1 2 2 1 0 0 0 1 0 0 
 2 1 2 2 1 2 2 1 0 0 1 0 0 0 
 2 1 2 2 1 2 2 1 0 1 0 0 0 0 
 2 1 2 2 1 2 2 1 1 0 0 0 0 0 
 2 1 2 2 1 2 2 2 0 0 0 0 0 0 
 2 1 2 2 2 1 2 0 0 0 0 0 0 2 
 2 1 2 2 2 1 2 0 0 0 0 0 1 1 
 2 1 2 2 2 1 2 0 0 0 0 0 2 0 
 2 1 2 2 2 1 2 0 0 0 0 1 0 1 
 2 1 2 2 2 1 2 0 0 0 0 1 1 0 
 2 1 2 2 2 1 2 0 0 0 0 2 0 0 
 2 1 2 2 2 1 2 0 0 0 1 0 0 1 
 2 1 2 2 2 1 2 0 0 0 1 0 1 0 
 2 1 2 2 2 1 2 0 0 0 1 1 0 0 
 2 1 2 2 2 1 2 0 0 0 2 0 0 0 
 2 1 2 2 2 1 2 0 0 1 0 0 0 1 
 2 1 2 2 2 1 2 0 0 1 0 0 1 0 
 2 1 2 2 2 1 2 0 0 1 0 1 0 0 
 2 1 2 2 2 1 2 0 0 1 1 0 0 0 
 2 1 2 2 2 1 2 0 0 2 0 0 0 0 
 2 1 2 2 2 1 2 0 1 0 0 0 0 1 
 2 1 2 2 2 1 2 0 1 0 0 0 1 0 
 2 1 2 2 2 1 2 0 1 0 0 1 0 0 
 2 1 2 2 2 1 2 0 1 0 1 0 0 0 
 2 1 2 2 2 1 2 0 1 1 0 0 0 0 
 2 1 2 2 2 1 2 0 2 0 0 0 0 0 
 2 1 2 2 2 1 2 1 0 0 0 0 0 1 
 2 1 2 2 2 1 2 1 0 0 0 0 1 0 
 2 1 2 2 2 1 2 1 0 0 0 1 0 0 
 2 1 2 2 2 1 2 1 0 0 1 0 0 0 
 2 1 2 2 2 1 2 1 0 1 0 0 0 0 
 2 1 2 2 2 1 2 1 1 0 0 0 0 0 
 2 1 2 2 2 1 2 2 0 0 0 0 0 0 
 2 1 2 2 2 2 1 0 0 0 0 0 0 2 
 2 1 2 2 2 2 1 0 0 0 0 0 1 1 
 2 1 2 2 2 2 1 0 0 0 0 0 2 0 
 2 1 2 2 2 2 1 0 0 0 0 1 0 1 
 2 1 2 2 2 2 1 0 0 0 0 1 1 0 
 2 1 2 2 2 2 1 0 0 0 0 2 0 0 
 2 1 2 2 2 2 1 0 0 0 1 0 0 1 
 2 1 2 2 2 2 1 0 0 0 1 0 1 0 
 2 1 2 2 2 2 1 0 0 0 1 1 0 0 
 2 1 2 2 2 2 1 0 0 0 2 0 0 0 
 2 1 2 2 2 2 1 0 0 1 0 0 0 1 
 2 1 2 2 2 2 1 0 0 1 0 0 1 0 
 2 1 2 2 2 2 1 0 0 1 0 1 0 0 
 2 1 2 2 2 2 1 0 0 1 1 0 0 0 
 2 1 2 2 2 2 1 0 0 2 0 0 0 0 
 2 1 2 2 2 2 1 0 1 0 0 0 0 1 
 2 1 2 2 2 2 1 0 1 0 0 0 1 0 
 2 1 2 2 2 2 1 0 1 0 0 1 0 0 
 2 1 2 2 2 2 1 0 1 0 1 0 0 0 
 2 1 2 2 2 2 1 0 1 1 0 0 0 0 
 2 1 2 2 2 2 1 0 2 0 0 0 0 0 
 2 1 2 2 2 2 1 1 0 0 0 0 0 1 
 2 1 2 2 2 2 1 1 0 0 0 0 1 0 
 2 1 2 2 2 2 1 1 0 0 0 1 0 0 
 2 1 2 2 2 2 1 1 0 0 1 0 0 0 
 2 1 2 2 2 2 1 1 0 1 0 0 0 0 
 2 1 2 2 2 2 1 1 1 0 0 0 0 0 
 2 1 2 2 2 2 1 2 0 0 0 0 0 0 
 2 1 2 2 2 2 2 0 0 0 0 0 0 1 
 2 1 2 2 2 2 2 0 0 0 0 0 1 0 
 2 1 2 2 2 2 2 0 0 0 0 1 0 0 
 2 1 2 2 2 2 2 0 0 0 1 0 0 0 
 2 1 2 2 2 2 2 0 0 1 0 0 0 0 
 2 1 2 2 2 2 2 0 1 0 0 0 0 0 
 2 1 2 2 2 2 2 1 0 0 0 0 0 0 
 2 2 0 2 2 2 2 0 0 0 0 0 0 2 
 2 2 0 2 2 2 2 0 0 0 0 0 1 1 
 2 2 0 2 2 2 2 0 0 0 0 0 2 0 
 2 2 0 2 2 2 2 0 0 0 0 1 0 1 
 2 2 0 2 2 2 2 0 0 0 0 1 1 0 
 2 2 0 2 2 2 2 0 0 0 0 2 0 0 
 2 2 0 2 2 2 2 0 0 0 1 0 0 1 
 2 2 0 2 2 2 2 0 0 0 1 0 1 0 
 2 2 0 2 2 2 2 0 0 0 1 1 0 0 
 2 2 0 2 2 2 2 0 0 0 2 0 0 0 
 2 2 0 2 2 2 2 0 0 1 0 0 0 1 
 2 2 0 2 2 2 2 0 0 1 0 0 1 0 
 2 2 0 2 2 2 2 0 0 1 0 1 0 0 
 2 2 0 2 2 2 2 0 0 1 1 0 0 0 
 2 2 0 2 2 2 2 0 0 2 0 0 0 0 
 2 2 0 2 2 2 2 0 1 0 0 0 0 1 
 2 2 0 2 2 2 2 0 1 0 0 0 1 0 
 2 2 0 2 2 2 2 0 1 0 0 1 0 0 
 2 2 0 2 2 2 2 0 1 0 1 0 0 0 
 2 2 0 2 2 2 2 0 1 1 0 0 0 0 
 2 2 0 2 2 2 2 0 2 0 0 0 0 0 
 2 2 0 2 2 2 2 1 0 0 0 0 0 1 
 2 2 0 2 2 2 2 1 0 0 0 0 1 0 
 2 2 0 2 2 2 2 1 0 0 0 1 0 0 
 2 2 0 2 2 2 2 1 0 0 1 0 0 0 
 2 2 0 2 2 2 2 1 0 1 0 0 0 0 
 2 2 0 2 2 2 2 1 1 0 0 0 0 0 
 2 2 0 2 2 2 2 2 0 0 0 0 0 0 
 2 2 1 1 2 2 2 0 0 0 0 0 0 2 
 2 2 1 1 2 2 2 0 0 0 0 0 1 1 
 2 2 1 1 2 2 2 0 0 0 0 0 2 0 
 2 2 1 1 2 2 2 0 0 0 0 1 0 1 
 2 2 1 1 2 2 2 0 0 0 0 1 1 0 
 2 2 1 1 2 2 2 0 0 0 0 2 0 0 
 2 2 1 1 2 2 2 0 0 0 1 0 0 1 
 2 2 1 1 2 2 2 0 0 0 1 0 1 0 
 2 2 1 1 2 2 2 0 0 0 1 1 0 0 
 2 2 1 1 2 2 2 0 0 0 2 0 0 0 
 2 2 1 1 2 2 2 0 0 1 0 0 0 1 
 2 2 1 1 2 2 2 0 0 1 0 0 1 0 
 2 2 1 1 2 2 2 0 0 1 0 1 0 0 
 2 2 1 1 2 2 2 0 0 1 1 0 0 0 
 2 2 1 1 2 2 2 0 0 2 0 0 0 0 
 2 2 1 1 2 2 2 0 1 0 0 0 0 1 
 2 2 1 1 2 2 2 0 1 0 0 0 1 0 
 2 2 1 1 2 2 2 0 1 0 0 1 0 0 
 2 2 1 1 2 2 2 0 1 0 1 0 0 0 
 2 2 1 1 2 2 2 0 1 1 0 0 0 0 
 2 2 1 1 2 2 2 0 2 0 0 0 0 0 
 2 2 1 1 2 2 2 1 0 0 0 0 0 1 
 2 2 1 1 2 2 2 1 0 0 0 0 1 0 
 2 2 1 1 2 2 2 1 0 0 0 1 0 0 
 2 2 1 1 2 2 2 1 0 0 1 0 0 0 
 2 2 1 1 2 2 2 1 0 1 0 0 0 0 
 2 2 1 1 2 2 2 1 1 0 0 0 0 0 
 2 2 1 1 2 2 2 2 0 0 0 0 0 0 
 2 2 1 2 1 2 2 0 0 0 0 0 0 2 
 2 2 1 2 1 2 2 0 0 0 0 0 1 1 
 2 2 1 2 1 2 2 0 0 0 0 0 2 0 
 2 2 1 2 1 2 2 0 0 0 0 1 0 1 
 2 2 1 2 1 2 2 0 0 0 0 1 1 0 
 2 2 1 2 1 2 2 0 0 0 0 2 0 0 
 2 2 1 2 1 2 2 0 0 0 1 0 0 1 
 2 2 1 2 1 2 2 0 0 0 1 0 1 0 
 2 2 1 2 1 2 2 0 0 0 1 1 0 0 
 2 2 1 2 1 2 2 0 0 0 2 0 0 0 
 2 2 1 2 1 2 2 0 0 1 0 0 0 1 
 2 2 1 2 1 2 2 0 0 1 0 0 1 0 
 2 2 1 2 1 2 2 0 0 1 0 1 0 0 
 2 2 1 2 1 2 2 0 0 1 1 0 0 0 
 2 2 1 2 1 2 2 0 0 2 0 0 0 0 
 2 2 1 2 1 2 2 0 1 0 0 0 0 1 
 2 2 1 2 1 2 2 0 1 0 0 0 1 0 
 2 2 1 2 1 2 2 0 1 0 0 1 0 0 
 2 2 1 2 1 2 2 0 1 0 1 0 0 0 
 2 2 1 2 1 2 2 0 1 1 0 0 0 0 
 2 2 1 2 1 2 2 0 2 0 0 0 0 0 
 2 2 1 2 1 2 2 1 0 0 0 0 0 1 
 2 2 1 2 1 2 2 1 0 0 0 0 1 0 
 2 2 1 2 1 2 2 1 0 0 0 1 0 0 
 2 2 1 2 1 2 2 1 0 0 1 0 0 0 
 2 2 1 2 1 2 2 1 0 1 0 0 0 0 
 2 2 1 2 1 2 2 1 1 0 0 0 0 0 
 2 2 1 2 1 2 2 2 0 0 0 0 0 0 
 2 2 1 2 2 1 2 0 0 0 0 0 0 2 
 2 2 1 2 2 1 2 0 0 0 0 0 1 1 
 2 2 1 2 2 1 2 0 0 0 0 0 2 0 
 2 2 1 2 2 1 2 0 0 0 0 1 0 1 
 2 2 1 2 2 1 2 0 0 0 0 1 1 0 
 2 2 1 2 2 1 2 0 0 0 0 2 0 0 
 2 2 1 2 2 1 2 0 0 0 1 0 0 1 
 2 2 1 2 2 1 2 0 0 0 1 0 1 0 
 2 2 1 2 2 1 2 0 0 0 1 1 0 0 
 2 2 1 2 2 1 2 0 0 0 2 0 0 0 
 2 2 1 2 2 1 2 0 0 1 0 0 0 1 
 2 2 1 2 2 1 2 0 0 1 0 0 1 0 
 2 2 1 2 2 1 2 0 0 1 0 1 0 0 
 2 2 1 2 2 1 2 0 0 1 1 0 0 0 
 2 2 1 2 2 1 2 0 0 2 0 0 0 0 
 2 2 1 2 2 1 2 0 1 0 0 0 0 1 
 2 2 1 2 2 1 2 0 1 0 0 0 1 0 
 2 2 1 2 2 1 2 0 1 0 0 1 0 0 
 2 2 1 2 2 1 2 0 1 0 1 0 0 0 
 2 2 1 2 2 1 2 0 1 1 0 0 0 0 
 2 2 1 2 2 1 2 0 2 0 0 0 0 0 
 2 2 1 2 2 1 2 1 0 0 0 0 0 1 
 2 2 1 2 2 1 2 1 0 0 0 0 1 0 
 2 2 1 2 2 1 2 1 0 0 0 1 0 0 
 2 2 1 2 2 1 2 1 0 0 1 0 0 0 
 2 2 1 2 2 1 2 1 0 1 0 0 0 0 
 2 2 1 2 2 1 2 1 1 0 0 0 0 0 
 2 2 1 2 2 1 2 2 0 0 0 0 0 0 
 2 2 1 2 2 2 1 0 0 0 0 0 0 2 
 2 2 1 2 2 2 1 0 0 0 0 0 1 1 
 2 2 1 2 2 2 1 0 0 0 0 0 2 0 
 2 2 1 2 2 2 1 0 0 0 0 1 0 1 
 2 2 1 2 2 2 1 0 0 0 0 1 1 0 
 2 2 1 2 2 2 1 0 0 0 0 2 0 0 
 2 2 1 2 2 2 1 0 0 0 1 0 0 1 
 2 2 1 2 2 2 1 0 0 0 1 0 1 0 
 2 2 1 2 2 2 1 0 0 0 1 1 0 0 
 2 2 1 2 2 2 1 0 0 0 2 0 0 0 
 2 2 1 2 2 2 1 0 0 1 0 0 0 1 
 2 2 1 2 2 2 1 0 0 1 0 0 1 0 
 2 2 1 2 2 2 1 0 0 1 0 1 0 0 
 2 2 1 2 2 2 1 0 0 1 1 0 0 0 
 2 2 1 2 2 2 1 0 0 2 0 0 0 0 
 2 2 1 2 2 2 1 0 1 0 0 0 0 1 
 2 2 1 2 2 2 1 0 1 0 0 0 1 0 
 2 2 1 2 2 2 1 0 1 0 0 1 0 0 
 2 2 1 2 2 2 1 0 1 0 1 0 0 0 
 2 2 1 2 2 2 1 0 1 1 0 0 0 0 
 2 2 1 2 2 2 1 0 2 0 0 0 0 0 
 2 2 1 2 2 2 1 1 0 0 0 0 0 1 
 2 2 1 2 2 2 1 1 0 0 0 0 1 0 
 2 2 1 2 2 2 1 1 0 0 0 1 0 0 
 2 2 1 2 2 2 1 1 0 0 1 0 0 0 
 2 2 1 2 2 2 1 1 0 1 0 0 0 0 
 2 2 1 2 2 2 1 1 1 0 0 0 0 0 
 2 2 1 2 2 2 1 2 0 0 0 0 0 0 
 2 2 1 2 2 2 2 0 0 0 0 0 0 1 
 2 2 1 2 2 2 2 0 0 0 0 0 1 0 
 2 2 1 2 2 2 2 0 0 0 0 1 0 0 
 2 2 1 2 2 2 2 0 0 0 1 0 0 0 
 2 2 1 2 2 2 2 0 0 1 0 0 0 0 
 2 2 1 2 2 2 2 0 1 0 0 0 0 0 
 2 2 1 2 2 2 2 1 0 0 0 0 0 0 
 2 2 2 0 2 2 2 0 0 0 0 0 0 2 
 2 2 2 0 2 2 2 0 0 0 0 0 1 1 
 2 2 2 0 2 2 2 0 0 0 0 0 2 0 
 2 2 2 0 2 2 2 0 0 0 0 1 0 1 
 2 2 2 0 2 2 2 0 0 0 0 1 1 0 
 2 2 2 0 2 2 2 0 0 0 0 2 0 0 
 2 2 2 0 2 2 2 0 0 0 1 0 0 1 
 2 2 2 0 2 2 2 0 0 0 1 0 1 0 
 2 2 2 0 2 2 2 0 0 0 1 1 0 0 
 2 2 2 0 2 2 2 0 0 0 2 0 0 0 
 2 2 2 0 2 2 2 0 0 1 0 0 0 1 
 2 2 2 0 2 2 2 0 0 1 0 0 1 0 
 2 2 2 0 2 2 2 0 0 1 0 1 0 0 
 2 2 2 0 2 2 2 0 0 1 1 0 0 0 
 2 2 2 0 2 2 2 0 0 2 0 0 0 0 
 2 2 2 0 2 2 2 0 1 0 0 0 0 1 
 2 2 2 0 2 2 2 0 1 0 0 0 1 0 
 2 2 2 0 2 2 2 0 1 0 0 1 0 0 
 2 2 2 0 2 2 2 0 1 0 1 0 0 0 
 2 2 2 0 2 2 2 0 1 1 0 0 0 0 
 2 2 2 0 2 2 2 0 2 0 0 0 0 0 
 2 2 2 0 2 2 2 1 0 0 0 0 0 1 
 2 2 2 0 2 2 2 1 0 0 0 0 1 0 
 2 2 2 0 2 2 2 1 0 0 0 1 0 0 
 2 2 2 0 2 2 2 1 0 0 1 0 0 0 
 2 2 2 0 2 2 2 1 0 1 0 0 0 0 
 2 2 2 0 2 2 2 1 1 0 0 0 0 0 
 2 2 2 0 2 2 2 2 0 0 0 0 0 0 
 2 2 2 1 1 2 2 0 0 0 0 0 0 2 
 2 2 2 1 1 2 2 0 0 0 0 0 1 1 
 2 2 2 1 1 2 2 0 0 0 0 0 2 0 
 2 2 2 1 1 2 2 0 0 0 0 1 0 1 
 2 2 2 1 1 2 2 0 0 0 0 1 1 0 
 2 2 2 1 1 2 2 0 0 0 0 2 0 0 
 2 2 2 1 1 2 2 0 0 0 1 0 0 1 
 2 2 2 1 1 2 2 0 0 0 1 0 1 0 
 2 2 2 1 1 2 2 0 0 0 1 1 0 0 
 2 2 2 1 1 2 2 0 0 0 2 0 0 0 
 2 2 2 1 1 2 2 0 0 1 0 0 0 1 
 2 2 2 1 1 2 2 0 0 1 0 0 1 0 
 2 2 2 1 1 2 2 0 0 1 0 1 0 0 
 2 2 2 1 1 2 2 0 0 1 1 0 0 0 
 2 2 2 1 1 2 2 0 0 2 0 0 0 0 
 2 2 2 1 1 2 2 0 1 0 0 0 0 1 
 2 2 2 1 1 2 2 0 1 0 0 0 1 0 
 2 2 2 1 1 2 2 0 1 0 0 1 0 0 
 2 2 2 1 1 2 2 0 1 0 1 0 0 0 
 2 2 2 1 1 2 2 0 1 1 0 0 0 0 
 2 2 2 1 1 2 2 0 2 0 0 0 0 0 
 2 2 2 1 1 2 2 1 0 0 0 0 0 1 
 2 2 2 1 1 2 2 1 0 0 0 0 1 0 
 2 2 2 1 1 2 2 1 0 0 0 1 0 0 
 2 2 2 1 1 2 2 1 0 0 1 0 0 0 
 2 2 2 1 1 2 2 1 0 1 0 0 0 0 
 2 2 2 1 1 2 2 1 1 0 0 0 0 0 
 2 2 2 1 1 2 2 2 0 0 0 0 0 0 
 2 2 2 1 2 1 2 0 0 0 0 0 0 2 
 2 2 2 1 2 1 2 0 0 0 0 0 1 1 
 2 2 2 1 2 1 2 0 0 0 0 0 2 0 
 2 2 2 1 2 1 2 0 0 0 0 1 0 1 
 2 2 2 1 2 1 2 0 0 0 0 1 1 0 
 2 2 2 1 2 1 2 0 0 0 0 2 0 0 
 2 2 2 1 2 1 2 0 0 0 1 0 0 1 
 2 2 2 1 2 1 2 0 0 0 1 0 1 0 
 2 2 2 1 2 1 2 0 0 0 1 1 0 0 
 2 2 2 1 2 1 2 0 0 0 2 0 0 0 
 2 2 2 1 2 1 2 0 0 1 0 0 0 1 
 2 2 2 1 2 1 2 0 0 1 0 0 1 0 
 2 2 2 1 2 1 2 0 0 1 0 1 0 0 
 2 2 2 1 2 1 2 0 0 1 1 0 0 0 
 2 2 2 1 2 1 2 0 0 2 0 0 0 0 
 2 2 2 1 2 1 2 0 1 0 0 0 0 1 
 2 2 2 1 2 1 2 0 1 0 0 0 1 0 
 2 2 2 1 2 1 2 0 1 0 0 1 0 0 
 2 2 2 1 2 1 2 0 1 0 1 0 0 0 
 2 2 2 1 2 1 2 0 1 1 0 0 0 0 
 2 2 2 1 2 1 2 0 2 0 0 0 0 0 
 2 2 2 1 2 1 2 1 0 0 0 0 0 1 
 2 2 2 1 2 1 2 1 0 0 0 0 1 0 
 2 2 2 1 2 1 2 1 0 0 0 1 0 0 
 2 2 2 1 2 1 2 1 0 0 1 0 0 0 
 2 2 2 1 2 1 2 1 0 1 0 0 0 0 
 2 2 2 1 2 1 2 1 1 0 0 0 0 0 
 2 2 2 1 2 1 2 2 0 0 0 0 0 0 
 2 2 2 1 2 2 1 0 0 0 0 0 0 2 
 2 2 2 1 2 2 1 0 0 0 0 0 1 1 
 2 2 2 1 2 2 1 0 0 0 0 0 2 0 
 2 2 2 1 2 2 1 0 0 0 0 1 0 1 
 2 2 2 1 2 2 1 0 0 0 0 1 1 0 
 2 2 2 1 2 2 1 0 0 0 0 2 0 0 
 2 2 2 1 2 2 1 0 0 0 1 0 0 1 
 2 2 2 1 2 2 1 0 0 0 1 0 1 0 
 2 2 2 1 2 2 1 0 0 0 1 1 0 0 
 2 2 2 1 2 2 1 0 0 0 2 0 0 0 
 2 2 2 1 2 2 1 0 0 1 0 0 0 1 
 2 2 2 1 2 2 1 0 0 1 0 0 1 0 
 2 2 2 1 2 2 1 0 0 1 0 1 0 0 
 2 2 2 1 2 2 1 0 0 1 1 0 0 0 
 2 2 2 1 2 2 1 0 0 2 0 0 0 0 
 2 2 2 1 2 2 1 0 1 0 0 0 0 1 
 2 2 2 1 2 2 1 0 1 0 0 0 1 0 
 2 2 2 1 2 2 1 0 1 0 0 1 0 0 
 2 2 2 1 2 2 1 0 1 0 1 0 0 0 
 2 2 2 1 2 2 1 0 1 1 0 0 0 0 
 2 2 2 1 2 2 1 0 2 0 0 0 0 0 
 2 2 2 1 2 2 1 1 0 0 0 0 0 1 
 2 2 2 1 2 2 1 1 0 0 0 0 1 0 
 2 2 2 1 2 2 1 1 0 0 0 1 0 0 
 2 2 2 1 2 2 1 1 0 0 1 0 0 0 
 2 2 2 1 2 2 1 1 0 1 0 0 0 0 
 2 2 2 1 2 2 1 1 1 0 0 0 0 0 
 2 2 2 1 2 2 1 2 0 0 0 0 0 0 
 2 2 2 1 2 2 2 0 0 0 0 0 0 1 
 2 2 2 1 2 2 2 0 0 0 0 0 1 0 
 2 2 2 1 2 2 2 0 0 0 0 1 0 0 
 2 2 2 1 2 2 2 0 0 0 1 0 0 0 
 2 2 2 1 2 2 2 0 0 1 0 0 0 0 
 2 2 2 1 2 2 2 0 1 0 0 0 0 0 
 2 2 2 1 2 2 2 1 0 0 0 0 0 0 
 2 2 2 2 0 2 2 0 0 0 0 0 0 2 
 2 2 2 2 0 2 2 0 0 0 0 0 1 1 
 2 2 2 2 0 2 2 0 0 0 0 0 2 0 
 2 2 2 2 0 2 2 0 0 0 0 1 0 1 
 2 2 2 2 0 2 2 0 0 0 0 1 1 0 
 2 2 2 2 0 2 2 0 0 0 0 2 0 0 
 2 2 2 2 0 2 2 0 0 0 1 0 0 1 
 2 2 2 2 0 2 2 0 0 0 1 0 1 0 
 2 2 2 2 0 2 2 0 0 0 1 1 0 0 
 2 2 2 2 0 2 2 0 0 0 2 0 0 0 
 2 2 2 2 0 2 2 0 0 1 0 0 0 1 
 2 2 2 2 0 2 2 0 0 1 0 0 1 0 
 2 2 2 2 0 2 2 0 0 1 0 1 0 0 
 2 2 2 2 0 2 2 0 0 1 1 0 0 0 
 2 2 2 2 0 2 2 0 0 2 0 0 0 0 
 2 2 2 2 0 2 2 0 1 0 0 0 0 1 
 2 2 2 2 0 2 2 0 1 0 0 0 1 0 
 2 2 2 2 0 2 2 0 1 0 0 1 0 0 
 2 2 2 2 0 2 2 0 1 0 1 0 0 0 
 2 2 2 2 0 2 2 0 1 1 0 0 0 0 
 2 2 2 2 0 2 2 0 2 0 0 0 0 0 
 2 2 2 2 0 2 2 1 0 0 0 0 0 1 
 2 2 2 2 0 2 2 1 0 0 0 0 1 0 
 2 2 2 2 0 2 2 1 0 0 0 1 0 0 
 2 2 2 2 0 2 2 1 0 0 1 0 0 0 
 2 2 2 2 0 2 2 1 0 1 0 0 0 0 
 2 2 2 2 0 2 2 1 1 0 0 0 0 0 
 2 2 2 2 0 2 2 2 0 0 0 0 0 0 
 2 2 2 2 1 1 2 0 0 0 0 0 0 2 
 2 2 2 2 1 1 2 0 0 0 0 0 1 1 
 2 2 2 2 1 1 2 0 0 0 0 0 2 0 
 2 2 2 2 1 1 2 0 0 0 0 1 0 1 
 2 2 2 2 1 1 2 0 0 0 0 1 1 0 
 2 2 2 2 1 1 2 0 0 0 0 2 0 0 
 2 2 2 2 1 1 2 0 0 0 1 0 0 1 
 2 2 2 2 1 1 2 0 0 0 1 0 1 0 
 2 2 2 2 1 1 2 0 0 0 1 1 0 0 
 2 2 2 2 1 1 2 0 0 0 2 0 0 0 
 2 2 2 2 1 1 2 0 0 1 0 0 0 1 
 2 2 2 2 1 1 2 0 0 1 0 0 1 0 
 2 2 2 2 1 1 2 0 0 1 0 1 0 0 
 2 2 2 2 1 1 2 0 0 1 1 0 0 0 
 2 2 2 2 1 1 2 0 0 2 0 0 0 0 
 2 2 2 2 1 1 2 0 1 0 0 0 0 1 
 2 2 2 2 1 1 2 0 1 0 0 0 1 0 
 2 2 2 2 1 1 2 0 1 0 0 1 0 0 
 2 2 2 2 1 1 2 0 1 0 1 0 0 0 
 2 2 2 2 1 1 2 0 1 1 0 0 0 0 
 2 2 2 2 1 1 2 0 2 0 0 0 0 0 
 2 2 2 2 1 1 2 1 0 0 0 0 0 1 
 2 2 2 2 1 1 2 1 0 0 0 0 1 0 
 2 2 2 2 1 1 2 1 0 0 0 1 0 0 
 2 2 2 2 1 1 2 1 0 0 1 0 0 0 
 2 2 2 2 1 1 2 1 0 1 0 0 0 0 
 2 2 2 2 1 1 2 1 1 0 0 0 0 0 
 2 2 2 2 1 1 2 2 0 0 0 0 0 0 
 2 2 2 2 1 2 1 0 0 0 0 0 0 2 
 2 2 2 2 1 2 1 0 0 0 0 0 1 1 
 2 2 2 2 1 2 1 0 0 0 0 0 2 0 
 2 2 2 2 1 2 1 0 0 0 0 1 0 1 
 2 2 2 2 1 2 1 0 0 0 0 1 1 0 
 2 2 2 2 1 2 1 0 0 0 0 2 0 0 
 2 2 2 2 1 2 1 0 0 0 1 0 0 1 
 2 2 2 2 1 2 1 0 0 0 1 0 1 0 
 2 2 2 2 1 2 1 0 0 0 1 1 0 0 
 2 2 2 2 1 2 1 0 0 0 2 0 0 0 
 2 2 2 2 1 2 1 0 0 1 0 0 0 1 
 2 2 2 2 1 2 1 0 0 1 0 0 1 0 
 2 2 2 2 1 2 1 0 0 1 0 1 0 0 
 2 2 2 2 1 2 1 0 0 1 1 0 0 0 
 2 2 2 2 1 2 1 0 0 2 0 0 0 0 
 2 2 2 2 1 2 1 0 1 0 0 0 0 1 
 2 2 2 2 1 2 1 0 1 0 0 0 1 0 
 2 2 2 2 1 2 1 0 1 0 0 1 0 0 
 2 2 2 2 1 2 1 0 1 0 1 0 0 0 
 2 2 2 2 1 2 1 0 1 1 0 0 0 0 
 2 2 2 2 1 2 1 0 2 0 0 0 0 0 
 2 2 2 2 1 2 1 1 0 0 0 0 0 1 
 2 2 2 2 1 2 1 1 0 0 0 0 1 0 
 2 2 2 2 1 2 1 1 0 0 0 1 0 0 
 2 2 2 2 1 2 1 1 0 0 1 0 0 0 
 2 2 2 2 1 2 1 1 0 1 0 0 0 0 
 2 2 2 2 1 2 1 1 1 0 0 0 0 0 
 2 2 2 2 1 2 1 2 0 0 0 0 0 0 
 2 2 2 2 1 2 2 0 0 0 0 0 0 1 
 2 2 2 2 1 2 2 0 0 0 0 0 1 0 
 2 2 2 2 1 2 2 0 0 0 0 1 0 0 
 2 2 2 2 1 2 2 0 0 0 1 0 0 0 
 2 2 2 2 1 2 2 0 0 1 0 0 0 0 
 2 2 2 2 1 2 2 0 1 0 0 0 0 0 
 2 2 2 2 1 2 2 1 0 0 0 0 0 0 
 2 2 2 2 2 0 2 0 0 0 0 0 0 2 
 2 2 2 2 2 0 2 0 0 0 0 0 1 1 
 2 2 2 2 2 0 2 0 0 0 0 0 2 0 
 2 2 2 2 2 0 2 0 0 0 0 1 0 1 
 2 2 2 2 2 0 2 0 0 0 0 1 1 0 
 2 2 2 2 2 0 2 0 0 0 0 2 0 0 
 2 2 2 2 2 0 2 0 0 0 1 0 0 1 
 2 2 2 2 2 0 2 0 0 0 1 0 1 0 
 2 2 2 2 2 0 2 0 0 0 1 1 0 0 
 2 2 2 2 2 0 2 0 0 0 2 0 0 0 
 2 2 2 2 2 0 2 0 0 1 0 0 0 1 
 2 2 2 2 2 0 2 0 0 1 0 0 1 0 
 2 2 2 2 2 0 2 0 0 1 0 1 0 0 
 2 2 2 2 2 0 2 0 0 1 1 0 0 0 
 2 2 2 2 2 0 2 0 0 2 0 0 0 0 
 2 2 2 2 2 0 2 0 1 0 0 0 0 1 
 2 2 2 2 2 0 2 0 1 0 0 0 1 0 
 2 2 2 2 2 0 2 0 1 0 0 1 0 0 
 2 2 2 2 2 0 2 0 1 0 1 0 0 0 
 2 2 2 2 2 0 2 0 1 1 0 0 0 0 
 2 2 2 2 2 0 2 0 2 0 0 0 0 0 
 2 2 2 2 2 0 2 1 0 0 0 0 0 1 
 2 2 2 2 2 0 2 1 0 0 0 0 1 0 
 2 2 2 2 2 0 2 1 0 0 0 1 0 0 
 2 2 2 2 2 0 2 1 0 0 1 0 0 0 
 2 2 2 2 2 0 2 1 0 1 0 0 0 0 
 2 2 2 2 2 0 2 1 1 0 0 0 0 0 
 2 2 2 2 2 0 2 2 0 0 0 0 0 0 
 2 2 2 2 2 1 1 0 0 0 0 0 0 2 
 2 2 2 2 2 1 1 0 0 0 0 0 1 1 
 2 2 2 2 2 1 1 0 0 0 0 0 2 0 
 2 2 2 2 2 1 1 0 0 0 0 1 0 1 
 2 2 2 2 2 1 1 0 0 0 0 1 1 0 
 2 2 2 2 2 1 1 0 0 0 0 2 0 0 
 2 2 2 2 2 1 1 0 0 0 1 0 0 1 
 2 2 2 2 2 1 1 0 0 0 1 0 1 0 
 2 2 2 2 2 1 1 0 0 0 1 1 0 0 
 2 2 2 2 2 1 1 0 0 0 2 0 0 0 
 2 2 2 2 2 1 1 0 0 1 0 0 0 1 
 2 2 2 2 2 1 1 0 0 1 0 0 1 0 
 2 2 2 2 2 1 1 0 0 1 0 1 0 0 
 2 2 2 2 2 1 1 0 0 1 1 0 0 0 
 2 2 2 2 2 1 1 0 0 2 0 0 0 0 
 2 2 2 2 2 1 1 0 1 0 0 0 0 1 
 2 2 2 2 2 1 1 0 1 0 0 0 1 0 
 2 2 2 2 2 1 1 0 1 0 0 1 0 0 
 2 2 2 2 2 1 1 0 1 0 1 0 0 0 
 2 2 2 2 2 1 1 0 1 1 0 0 0 0 
 2 2 2 2 2 1 1 0 2 0 0 0 0 0 
 2 2 2 2 2 1 1 1 0 0 0 0 0 1 
 2 2 2 2 2 1 1 1 0 0 0 0 1 0 
 2 2 2 2 2 1 1 1 0 0 0 1 0 0 
 2 2 2 2 2 1 1 1 0 0 1 0 0 0 
 2 2 2 2 2 1 1 1 0 1 0 0 0 0 
 2 2 2 2 2 1 1 1 1 0 0 0 0 0 
 2 2 2 2 2 1 1 2 0 0 0 0 0 0 
 2 2 2 2 2 1 2 0 0 0 0 0 0 1 
 2 2 2 2 2 1 2 0 0 0 0 0 1 0 
 2 2 2 2 2 1 2 0 0 0 0 1 0 0 
 2 2 2 2 2 1 2 0 0 0 1 0 0 0 
 2 2 2 2 2 1 2 0 0 1 0 0 0 0 
 2 2 2 2 2 1 2 0 1 0 0 0 0 0 
 2 2 2 2 2 1 2 1 0 0 0 0 0 0 
 2 2 2 2 2 2 0 0 0 0 0 0 0 2 
 2 2 2 2 2 2 0 0 0 0 0 0 1 1 
 2 2 2 2 2 2 0 0 0 0 0 0 2 0 
 2 2 2 2 2 2 0 0 0 0 0 1 0 1 
 2 2 2 2 2 2 0 0 0 0 0 1 1 0 
 2 2 2 2 2 2 0 0 0 0 0 2 0 0 
 2 2 2 2 2 2 0 0 0 0 1 0 0 1 
 2 2 2 2 2 2 0 0 0 0 1 0 1 0 
 2 2 2 2 2 2 0 0 0 0 1 1 0 0 
 2 2 2 2 2 2 0 0 0 0 2 0 0 0 
 2 2 2 2 2 2 0 0 0 1 0 0 0 1 
 2 2 2 2 2 2 0 0 0 1 0 0 1 0 
 2 2 2 2 2 2 0 0 0 1 0 1 0 0 
 2 2 2 2 2 2 0 0 0 1 1 0 0 0 
 2 2 2 2 2 2 0 0 0 2 0 0 0 0 
 2 2 2 2 2 2 0 0 1 0 0 0 0 1 
 2 2 2 2 2 2 0 0 1 0 0 0 1 0 
 2 2 2 2 2 2 0 0 1 0 0 1 0 0 
 2 2 2 2 2 2 0 0 1 0 1 0 0 0 
 2 2 2 2 2 2 0 0 1 1 0 0 0 0 
 2 2 2 2 2 2 0 0 2 0 0 0 0 0 
 2 2 2 2 2 2 0 1 0 0 0 0 0 1 
 2 2 2 2 2 2 0 1 0 0 0 0 1 0 
 2 2 2 2 2 2 0 1 0 0 0 1 0 0 
 2 2 2 2 2 2 0 1 0 0 1 0 0 0 
 2 2 2 2 2 2 0 1 0 1 0 0 0 0 
 2 2 2 2 2 2 0 1 1 0 0 0 0 0 
 2 2 2 2 2 2 0 2 0 0 0 0 0 0 
 2 2 2 2 2 2 1 0 0 0 0 0 0 1 
 2 2 2 2 2 2 1 0 0 0 0 0 1 0 
 2 2 2 2 2 2 1 0 0 0 0 1 0 0 
 2 2 2 2 2 2 1 0 0 0 1 0 0 0 
 2 2 2 2 2 2 1 0 0 1 0 0 0 0 
 2 2 2 2 2 2 1 0 1 0 0 0 0 0 
 2 2 2 2 2 2 1 1 0 0 0 0 0 0 
 $END

--- CLOSED SHELL ORBITALS --- GENERATED AT Mon Dec  7 12:28:48 2020
 anthracene RHF                                                                 
E(RHF)=     -536.0377553687, E(NUC)=  769.9167843798,   11 ITERS
 $VEC   
 1  1 3.06672915E-03-1.25269723E-04 8.41740301E-04-2.72610585E-05-1.35362935E-05
 1  2-6.27894542E-08 3.77259784E-04-1.90023909E-04 1.87545378E-06 2.82174263E-05
 1  3 2.38832364E-05-5.21006627E-05 1.82777347E-05 2.84030121E-07-1.72383375E-07
 1  4 3.74256782E-02-6.97511169E-05 8.83286071E-04-2.24815711E-05-4.58889389E-05
 1  5 4.20465956E-08 1.06476008E-03 8.39668922E-04 1.53434651E-06 3.33097781E-05
 1  6-1.16929623E-04 8.36198452E-05-2.74306992E-05-1.33937900E-07 5.25597550E-07
 1  7 4.93564228E-01 2.13410780E-03-4.94815408E-03-3.86405594E-05-3.30817819E-05
 1  8-5.38027796E-08-4.65784185E-04 8.38974102E-04-3.92587655E-06 9.01325129E-05
 1  9-3.07656675E-05-5.93668454E-05 1.30116730E-04 2.55607817E-07 3.70010591E-07
 1 10 4.95639533E-01 2.14439842E-03-4.97874305E-03-4.77122007E-05-1.79636046E-05
 1 11-1.31140503E-07 4.98415496E-04-8.01780180E-04 4.01019167E-06 9.41951717E-05
 1 12-3.35523411E-05-6.06428306E-05 1.28125723E-04 2.94532518E-07 3.80961126E-07
 1 13 3.75415344E-02-6.94887839E-05 8.82781002E-04-5.12087931E-05 2.66403184E-06
 1 14-1.90244770E-07 1.25142279E-03 5.18669151E-04 3.08079392E-06-1.02326554E-04
 1 15 1.78547022E-05 8.44718522E-05 5.93589879E-05-9.38092274E-07 4.26853052E-07
 1 16 3.07537251E-03-1.25209186E-04 8.40112407E-04-2.50699736E-05-1.72278031E-05
 1 17-4.41323456E-08 1.72024451E-05 4.21819473E-04-1.07113379E-06 3.85074591E-05
 1 18 1.37650363E-05-5.22724954E-05 1.18460702E-05 3.45629531E-07-1.59474676E-07
 1 19 9.94427609E-02-2.72034720E-05 2.54876132E-03 2.98933032E-05-5.12642648E-05
 1 20 2.44124506E-07-4.03879185E-04 6.83287702E-04-3.28740294E-06-4.75239175E-05
 1 21-1.05435932E-04 1.52959849E-04 5.95311569E-05-9.80167937E-07 1.01894995E-06
 1 22 9.94495301E-02-2.71844681E-05 2.54867776E-03-2.98768663E-05 5.12778888E-05
 1 23-2.44682020E-07 4.03254136E-04-6.83755778E-04 3.25523880E-06-4.75159491E-05
 1 24-1.05466365E-04 1.52982314E-04 5.95139653E-05-9.85869919E-07 1.02523937E-06
 1 25 4.93440456E-01 2.13354357E-03-4.94697772E-03 3.86502716E-05 3.30725761E-05
 1 26 4.44847731E-08 4.65315342E-04-8.38473289E-04 3.93625768E-06 9.01311257E-05
 1 27-3.07468225E-05-5.93843032E-05 1.30092506E-04 2.66383304E-07 3.70067809E-07
 1 28 4.95454505E-01 2.14351723E-03-4.97639643E-03 4.77103085E-05 1.79684287E-05
 1 29 1.28604643E-07-4.98395303E-04 8.01658871E-04-3.95833839E-06 9.41698775E-05
 1 30-3.35482764E-05-6.06216012E-05 1.28089873E-04 2.81812524E-07 3.59743535E-07
 1 31 3.75288973E-02-6.94842626E-05 8.82341129E-04 5.12021175E-05-2.65586259E-06
 1 32 1.87184467E-07-1.25116995E-03-5.18751675E-04-2.97412922E-06-1.02280853E-04
 1 33 1.78504307E-05 8.44304220E-05 5.93425238E-05-9.17746317E-07 4.19157901E-07
 1 34-1.63522158E-05 1.32855262E-04 1.58575647E-05 6.64059437E-05-1.24958258E-07
 1 35 3.07440447E-03-1.25196423E-04 8.40173709E-04 2.50626829E-05 1.72179987E-05
 1 36 4.49348392E-08-1.72767669E-05-4.21794145E-04 1.06739881E-06 3.84976162E-05
 1 37 1.37649154E-05-5.22625316E-05 1.18434340E-05 3.38364316E-07-1.60635450E-07
 1 38 3.06596921E-03-1.25249044E-04 8.41594873E-04 2.72499654E-05 1.35341994E-05
 1 39 6.37588458E-08-3.77210629E-04 1.90012984E-04-1.83998051E-06 2.82146474E-05