! PBE0 D3BJ RIJCOSX PAL16
! def2-TZVP def2/J def2-TZVP/C 
! TightSCF DefGrid3 SmallPrint
! Opt TightOpt Freq 
! CPCM(CH2Cl2) 
%MaxCore 5000 
 
%SCF MaxIter 500
 End 
%Geom MaxIter 500
 End 
%TDDFT IRoot 1 
 IRootMult Triplet
 End 
* xyzfile 0 1 B1_MA_opt_PBE0_T1.xyz
