! RKS PAL4 CAM-B3LYP D3BJ def2-TZVP
! RIJCOSX def2/J 
! TIGHTSCF Grid6 FINALGrid6   
! OptTS Freq 
%MaxCore 6000 
%tddft
    Nroots 5
    Iroot  1
end    
%geom
    MaxIter 500
    Calc_Hess true
end
* xyzfile 0 1 methacrolein_TD-CAM-B3LYP_S1_NTIa_TS_redo.xyz 
