 $contrl  ISPHER=1  scftyp=none   cityp=aldet $end
 $SYSTEM mwords=300 $END
 $cidet pures=.T. NFLGDM(1)=1,1 ncore=40 nact=14 
 nels=14  nstate=5  prttol=0.001  $end 
 $GUESS guess=moread  norb=246 NORDER=1  IORDER(40)=42
 IORDER(42)=40  IORDER(37)=41  IORDER(41)=37
 IORDER(51)=57  IORDER(57)=51  IORDER(52)=63
 IORDER(63)=52  IORDER(53)=65  IORDER(65)=53
 $END
 $BASIS  GBASIS=CCD $END
 $DATA
 anthracene RHF
 C1
 C  6  -11.089332     0.908499    -0.014377
 C  6   -9.726938     0.909422    -0.009475
 C  6   -8.996001     2.125844    -0.010162
 C  6   -9.724614     3.365511    -0.016133
 C  6  -11.142944     3.318371    -0.021114
 C  6  -11.806348     2.128431    -0.020283
 C  6   -7.604230     2.159918    -0.005319
 C  6   -9.017896     4.565071    -0.016863
 C  6   -7.626124     4.599145    -0.012008
 C  6   -6.897511     3.359477    -0.006088
 C  6   -5.479180     3.406615    -0.001227
 H  1   -4.932631     2.470890     0.003200
 C  6   -4.815775     4.596554    -0.002117
 C  6   -5.532791     5.816487    -0.007921
 C  6   -6.895186     5.815567    -0.012699
 H  1   -7.054377     1.224701    -0.000832
 H  1  -11.631981    -0.028058    -0.013791
 H  1   -9.175010    -0.023154    -0.004936
 H  1  -11.689491     4.254096    -0.025604
 H  1  -12.888582     2.109763    -0.024140
 H  1   -9.567738     5.500294    -0.021335
 H  1   -3.733540     4.615225     0.001642
 H  1   -4.990147     6.753047    -0.008550
 H  1   -7.447110     6.748145    -0.017127
 $end


--- CLOSED SHELL ORBITALS --- GENERATED AT Fri Jun 12 21:44:02 2020
 anthracene RHF                                                                 
E(RHF)=     -536.0377553687, E(NUC)=  769.9167843798,   11 ITERS
 $VEC   
 1  1 3.06672848E-03-1.25269735E-04 8.41740582E-04-2.72610565E-05-1.35362940E-05
 1  2-6.27894464E-08 3.77259861E-04-1.90023817E-04 1.87545380E-06 2.82174250E-05
 1  3 2.38832370E-05-5.21006620E-05 1.82777300E-05 2.84030124E-07-1.72383392E-07
 1  4 3.74256723E-02-6.97511194E-05 8.83285842E-04-2.24815691E-05-4.58889343E-05
 1  5 4.20465901E-08 1.06476028E-03 8.39668749E-04 1.53434769E-06 3.33097806E-05
 1  6-1.16929601E-04 8.36198200E-05-2.74306887E-05-1.33937815E-07 5.25597438E-07
 1  7 4.93564151E-01 2.13410740E-03-4.94815259E-03-3.86405504E-05-3.30817860E-05
 1  8-5.38027367E-08-4.65784712E-04 8.38974645E-04-3.92587991E-06 9.01324766E-05
 1  9-3.07656795E-05-5.93667972E-05 1.30116716E-04 2.55607508E-07 3.70010728E-07
 1 10 4.95639617E-01 2.14439885E-03-4.97874462E-03-4.77122018E-05-1.79636141E-05
 1 11-1.31140483E-07 4.98415284E-04-8.01779472E-04 4.01018900E-06 9.41952005E-05
 1 12-3.35523216E-05-6.06428788E-05 1.28125743E-04 2.94532781E-07 3.80960987E-07
 1 13 3.75415408E-02-6.94887815E-05 8.82781246E-04-5.12087983E-05 2.66403266E-06
 1 14-1.90244791E-07 1.25142286E-03 5.18668896E-04 3.08079484E-06-1.02326582E-04
 1 15 1.78547029E-05 8.44718788E-05 5.93589929E-05-9.38092512E-07 4.26853151E-07
 1 16 3.07537321E-03-1.25209174E-04 8.40112128E-04-2.50699745E-05-1.72278055E-05
 1 17-4.41323426E-08 1.72023253E-05 4.21819453E-04-1.07113417E-06 3.85074628E-05
 1 18 1.37650337E-05-5.22724965E-05 1.18460737E-05 3.45629542E-07-1.59474658E-07
 1 19 9.94427381E-02-2.72035441E-05 2.54876161E-03 2.98932990E-05-5.12642568E-05
 1 20 2.44124469E-07-4.03879097E-04 6.83287519E-04-3.28740213E-06-4.75238867E-05
 1 21-1.05435906E-04 1.52959793E-04 5.95311636E-05-9.80167601E-07 1.01894972E-06
 1 22 9.94495530E-02-2.71843963E-05 2.54867746E-03-2.98768705E-05 5.12778968E-05
 1 23-2.44682056E-07 4.03254225E-04-6.83755961E-04 3.25523960E-06-4.75159798E-05
 1 24-1.05466391E-04 1.52982370E-04 5.95139586E-05-9.85870259E-07 1.02523960E-06
 1 25 4.93440534E-01 2.13354397E-03-4.94697920E-03 3.86502805E-05 3.30725720E-05
 1 26 4.44848149E-08 4.65314818E-04-8.38472748E-04 3.93625437E-06 9.01311618E-05
 1 27-3.07468105E-05-5.93843513E-05 1.30092520E-04 2.66383611E-07 3.70067671E-07
 1 28 4.95454421E-01 2.14351680E-03-4.97639487E-03 4.77103074E-05 1.79684192E-05
 1 29 1.28604665E-07-4.98395516E-04 8.01659577E-04-3.95834105E-06 9.41698488E-05
 1 30-3.35482958E-05-6.06215529E-05 1.28089852E-04 2.81812266E-07 3.59743674E-07
 1 31 3.75288909E-02-6.94842651E-05 8.82340886E-04 5.12021123E-05-2.65586177E-06
 1 32 1.87184447E-07-1.25116989E-03-5.18751930E-04-2.97412830E-06-1.02280826E-04
 1 33 1.78504301E-05 8.44303955E-05 5.93425187E-05-9.17746085E-07 4.19157802E-07
 1 34-1.63522354E-05 1.32855191E-04 1.58575636E-05 6.64059400E-05-1.24958253E-07
 1 35 3.07440377E-03-1.25196434E-04 8.40173987E-04 2.50626820E-05 1.72179963E-05
 1 36 4.49348428E-08-1.72768859E-05-4.21794166E-04 1.06739845E-06 3.84976125E-05
 1 37 1.37649180E-05-5.22625305E-05 1.18434306E-05 3.38364305E-07-1.60635466E-07
 1 38 3.06596987E-03-1.25249032E-04 8.41594594E-04 2.72499674E-05 1.35341989E-05
 1 39 6.37588541E-08-3.77210553E-04 1.90013076E-04-1.83998049E-06 2.82146487E-05
 1 40 2.38773189E-05-5.20919676E-05 1.82751070E-05 2.76735979E-07-1.70760110E-07
 1 41 3.74158601E-02-6.97522652E-05 8.83023356E-04 2.24870532E-05 4.58825490E-05
 1 42-4.73369597E-08-1.06455994E-03-8.39532344E-04-1.49190240E-06 3.33019374E-05
 1 43-1.16900848E-04 8.35989110E-05-2.74230091E-05-1.30095325E-07 5.28222560E-07
 1 44 2.80526584E-05 2.77775899E-04-3.92084997E-05 6.66978256E-05-3.23047437E-07
 1 45-6.64651614E-05 4.65351523E-05-6.89540418E-06 2.10990342E-06-3.05928663E-08
 1 46-1.68350227E-05 1.31756659E-04-6.56125207E-05 1.82960250E-05-2.88526487E-07
 1 47-1.63388286E-05 1.32910092E-04-1.58573050E-05-6.64209922E-05 1.24341042E-07
 1 48-6.64942421E-05 4.65199697E-05-1.56561336E-06-7.04692401E-06 1.28203156E-08
 1 49 2.80657819E-05 2.77814715E-04 3.92294359E-05-6.66895283E-05 3.21525196E-07
 1 50-6.64829904E-05 4.65269722E-05 1.56591733E-06 7.04966367E-06-1.23073343E-08
 1 51-6.64554406E-05 4.65250485E-05 6.89558789E-06-2.11108052E-06 2.99205220E-08
 1 52-1.68325368E-05 1.31753241E-04 6.56025315E-05-1.82904475E-05 2.78487280E-07
 2  1-3.23837185E-03 5.49416075E-05-1.28505352E-04 3.87680120E-05 6.50411993E-06
 2  2 1.19472810E-07-5.49659854E-05 1.38798404E-04-5.66731082E-07-1.05546760E-05
 2  3-1.92669882E-05 2.98216641E-05-1.29151036E-05-1.30092495E-07 1.07350928E-07
 2  4-3.83805426E-02-3.57567176E-06-1.11522947E-03-1.60658610E-05 2.84759697E-05
 2  5-1.32187020E-07-3.92587855E-04-6.36491592E-04 3.29675993E-07-2.36388836E-05
 2  6 1.23258588E-04-9.96197047E-05 4.23817830E-05 2.00696551E-07-5.40619064E-07
 2  7-4.98165615E-01-2.32172207E-03 5.64024561E-03-1.24406508E-05 2.60283877E-05
 2  8-1.07918519E-07 9.11681457E-04-9.35199166E-04 5.73288275E-06-4.78868822E-05
 2  9 4.39093416E-05 3.97754054E-06-9.35303500E-05 4.19960989E-08-4.55094309E-07
 2 10-5.00816402E-01-2.33539946E-03 5.68990126E-03 1.66934362E-05-2.31902486E-05
 2 11 1.31228635E-07-3.64829898E-04 1.23108751E-03-4.65438915E-06-4.74182645E-05
 2 12 4.17417789E-05 5.67648551E-06-9.49950116E-05 3.32562746E-08-4.57401453E-07
 2 13-3.85415334E-02-3.61980763E-06-1.12065713E-03 1.72241525E-05-2.78714946E-05
 2 14 1.34542883E-07-7.48959822E-04-2.67111962E-05-2.61684395E-06 1.20524737E-04
 2 15-1.99945228E-05-1.00530214E-04-5.00129653E-05 1.05589427E-06-4.33336810E-07
 2 16-3.25133191E-03 5.46692973E-05-1.21373008E-04 2.45579322E-05 3.07630836E-05
 2 17 1.80453314E-09 9.76224865E-05-1.15384875E-04 6.67761641E-07-2.69174118E-05
 2 18-2.98483202E-06 2.99022438E-05-2.65739194E-06-2.28588091E-07 9.19278093E-08
 2 19 2.72328967E-04 5.47538673E-07-1.24312038E-06-5.83840421E-05-3.45176316E-05
 2 20-1.18719148E-07 2.15145030E-03 1.26945048E-03 4.19966518E-06 6.27998529E-05
 2 21-6.37811691E-05 9.81316143E-07-4.09317566E-05 3.61395932E-07 6.03637838E-08
 2 22-2.41209518E-04-5.53075837E-07 1.99366985E-06-5.83969211E-05-3.45072888E-05
 2 23-1.06961791E-07 2.15150096E-03 1.26923169E-03 4.19996705E-06-6.28198826E-05
 2 24 6.37543311E-05-9.34448498E-07 4.09548891E-05-3.63512872E-07-6.07053181E-08
 2 25 4.98347589E-01 2.32252458E-03-5.64219505E-03-1.24229333E-05 2.60373772E-05
 2 26-1.27011945E-07 9.11668107E-04-9.35279429E-04 5.80605270E-06 4.79262073E-05
 2 27-4.39123582E-05-4.01384910E-06 9.35721815E-05-3.51220206E-08 4.56096678E-07
 2 28 5.00940121E-01 2.33591317E-03-5.69098994E-03 1.67114156E-05-2.31873019E-05
 2 29 1.24007880E-07-3.65098992E-04 1.23153877E-03-4.66073653E-06 4.74383567E-05
 2 30-4.17620672E-05-5.67628953E-06 9.50332813E-05-4.69042911E-08 4.44809597E-07
 2 31 3.85524881E-02 3.59944473E-06 1.12092062E-03 1.72380287E-05-2.78731497E-05
 2 32 1.41931503E-07-7.49347829E-04-2.69178716E-05-2.56948577E-06-1.20547087E-04
 2 33 2.00029019E-05 1.00544186E-04 5.00318268E-05-1.03761402E-06 4.26222648E-07
 2 34 1.79822243E-05 9.68837603E-05 2.77196027E-06 4.21768567E-05-1.02302088E-07
 2 35 3.25232843E-03-5.47100957E-05 1.21664769E-04 2.45665200E-05 3.07691601E-05
 2 36 2.52604014E-09 9.76090667E-05-1.15519879E-04 6.67635093E-07 2.69279679E-05
 2 37 2.98834475E-06-2.99163126E-05 2.65927877E-06 2.23554094E-07-9.37148031E-08
 2 38 3.23956376E-03-5.49792017E-05 1.28724579E-04 3.87767869E-05 6.50814090E-06
 2 39 1.21817237E-07-5.50719102E-05 1.38863079E-04-5.72839484E-07 1.05650052E-05
 2 40 1.92748606E-05-2.98398658E-05 1.29214143E-05 1.26772548E-07-1.03991078E-07
 2 41 3.83941111E-02 3.55708626E-06 1.11552591E-03-1.60583553E-05 2.84928331E-05
 2 42-1.36563689E-07-3.92865912E-04-6.36790893E-04 3.17916756E-07 2.36467984E-05
 2 43-1.23303336E-04 9.96565375E-05-4.23955664E-05-1.99462807E-07 5.45928076E-07
 2 44 4.89835142E-07 1.59634942E-06-5.95105230E-05-3.48083403E-05-1.19389885E-07
 2 45 3.28687683E-05-6.82932220E-06-4.87710180E-06 3.45609444E-06-2.86071567E-08
 2 46-1.72845212E-05-9.48613535E-05 3.80086402E-05-1.79757521E-05 1.86848599E-07
 2 47-1.79932176E-05-9.68559793E-05 2.76518539E-06 4.21587751E-05-1.05377083E-07
 2 48 3.29838636E-05-6.21796955E-06 6.53199758E-07-5.95373081E-06 1.72013660E-08
 2 49-4.85554250E-07-1.52197326E-06-5.94975732E-05-3.48299231E-05-1.14353225E-07
 2 50-3.30043220E-05 6.23329638E-06 6.53329952E-07-5.95113964E-06 1.62596667E-08
 2 51-3.28890342E-05 6.84294157E-06-4.87543763E-06 3.45588298E-06-2.68609598E-08
 2 52 1.72856457E-05 9.49268876E-05 3.80304861E-05-1.79827253E-05 1.81586704E-07
 3  1 5.02874732E-03 6.93951557E-05-1.56853350E-03-1.30655841E-05 2.41768147E-06
 3  2-4.91625562E-08-4.08459760E-04-5.19277875E-04-5.77506776E-08 1.00700422E-05
 3  3-3.99811961E-06-6.07192255E-06 2.77917514E-05-5.58489791E-09 9.29939358E-08
 3  4 4.44868174E-02 5.49852932E-05 1.17683972E-03-1.10731051E-05-2.92952730E-05
 3  5 4.15770484E-08-1.12330282E-03 9.89158993E-04-6.74211442E-06-1.56126628E-05
 3  6-1.42050341E-04 1.57663004E-04-6.59632693E-05-5.32903040E-07 7.00728651E-07
 3  7 4.93434375E-01 2.56728742E-03-9.37898768E-03-4.40995910E-05 2.74390587E-05
 3  8-2.32782607E-07 2.91019696E-03-3.36456553E-03 1.95754101E-05 2.27126251E-04
 3  9 7.23091620E-05-2.99435413E-04 8.61975738E-05 1.92819283E-06-8.53461848E-07
 3 10-4.90771177E-01-2.55486159E-03 9.34890302E-03-2.54815597E-06 5.21185359E-05
 3 11-1.40167666E-07 1.52495376E-03-4.18668558E-03 1.67491856E-05-1.72116217E-04
 3 12-1.27268008E-04 2.99384225E-04-1.20930229E-04-1.62489701E-06 9.08362764E-07
 3 13-4.41880851E-02-5.45359389E-05-1.17270316E-03 3.08956714E-05-4.41214092E-06
 3 14 1.22920602E-07-3.14688389E-04 1.46287782E-03-5.06616693E-06 1.60047515E-04
 3 15-2.87681223E-06-1.57170702E-04-2.70824052E-05 1.39775981E-06-5.81140398E-07
 3 16-4.99002981E-03-6.96496001E-05 1.56930198E-03 4.09609560E-06 1.24488835E-05
 3 17-1.79203657E-08 6.52129938E-04 1.04908111E-04 2.06100793E-06-1.96330611E-05
 3 18 1.37217932E-05 5.91126790E-06-2.15333980E-05-4.93504362E-08-1.03949216E-07
 3 19 1.19510050E-01 3.35820142E-04-1.26899574E-03 2.81837130E-05-4.75554760E-05
 3 20 2.30794599E-07-7.11844691E-04 1.19702138E-03-5.79174611E-06-1.94611451E-04
 3 21-1.55447253E-04 3.50058704E-04-4.02975495E-05-2.10342550E-06 1.44729136E-06
 3 22-1.19503616E-01-3.35821668E-04 1.26915309E-03 2.81665425E-05-4.75614303E-05
 3 23 2.26503405E-07-7.11917097E-04 1.19692208E-03-5.72276702E-06 1.94593971E-04
 3 24 1.55455710E-04-3.50049681E-04 4.03116110E-05 2.13497567E-06-1.43848765E-06
 3 25-4.93320347E-01-2.56673280E-03 9.37742424E-03-4.40921343E-05 2.74346084E-05
 3 26-2.22739766E-07 2.90990555E-03-3.36408325E-03 1.93325937E-05-2.27088186E-04
 3 27-7.22916058E-05 2.99379792E-04-8.61879378E-05-1.92035013E-06 8.54011518E-07
 3 28 4.90717846E-01 2.55457113E-03-9.34793672E-03-2.54208150E-06 5.21104588E-05
 3 29-1.48490703E-07 1.52461479E-03-4.18609531E-03 1.67119837E-05 1.72098060E-04
 3 30 1.27237879E-04-2.99335939E-04 1.20931738E-04 1.59044418E-06-9.07324281E-07
 3 31 4.41851933E-02 5.45210053E-05 1.17273805E-03 3.08927063E-05-4.41206598E-06
 3 32 1.17076102E-07-3.14758017E-04 1.46269526E-03-5.05639738E-06-1.60025515E-04
 3 33 2.88243100E-06 1.57143084E-04 2.70859893E-05-1.35945566E-06 5.78246003E-07
 3 34 1.14585663E-04 4.13793072E-04 7.05799549E-06 1.94475864E-05-2.22044211E-08
 3 35 4.98983501E-03 6.96361701E-05-1.56914932E-03 4.09898944E-06 1.24504764E-05
 3 36-2.18250064E-08 6.52100174E-04 1.04870751E-04 1.99953271E-06 1.96328776E-05
 3 37-1.37236551E-05-5.90922253E-06 2.15298966E-05 4.75758459E-08 9.81084991E-08
 3 38-5.02752122E-03-6.93963324E-05 1.56848625E-03-1.30648510E-05 2.41819732E-06
 3 39-5.32819396E-08-4.08462018E-04-5.19248634E-04-2.43130918E-08-1.00631826E-05
 3 40 3.99939976E-06 6.06378280E-06-2.77883650E-05 9.35538438E-09-9.46954936E-08
 3 41-4.44759331E-02-5.49645327E-05-1.17679572E-03-1.10688355E-05-2.92866179E-05
 3 42 3.74657397E-08-1.12323932E-03 9.89039318E-04-6.60447935E-06 1.56061170E-05
 3 43 1.42020481E-04-1.57626598E-04 6.59493627E-05 5.31300591E-07-7.00172921E-07
 3 44 2.14038768E-04 6.19561489E-04-2.81323363E-05 4.81785238E-05-2.27566893E-07
 3 45-8.83011314E-06-1.21141853E-04 8.04023116E-06 4.07932349E-06 1.79181801E-08
 3 46 1.14630937E-04 4.14371136E-04-2.05864907E-05 3.33961512E-06-8.70406716E-08
 3 47-1.14603356E-04-4.13838326E-04 7.05433657E-06 1.94493950E-05-2.51298510E-08
 3 48 8.66914585E-06 1.21290796E-04-7.48500369E-06-5.01227996E-06-1.35656456E-08
 3 49-2.14037327E-04-6.19544621E-04-2.81276830E-05 4.81755426E-05-2.26826841E-07
 3 50-8.67343634E-06-1.21282453E-04-7.48558245E-06-5.01099020E-06-1.24961102E-08
 3 51 8.82599367E-06 1.21141889E-04 8.04058826E-06 4.08017539E-06 1.73730049E-08
 3 52-1.14617364E-04-4.14309154E-04-2.05795117E-05 3.33488952E-06-7.71332222E-08
 4  1 5.44757142E-03 3.86091221E-05-5.81120798E-04 4.29971872E-06 4.42025281E-06
 4  2 7.45752402E-09-1.24075297E-04-9.83978133E-05-1.69963348E-07 3.25402254E-05
 4  3-2.82903001E-06-2.97111954E-05 9.67196095E-06 2.35704336E-07-5.03780597E-08
 4  4 4.65416888E-02 1.29931690E-04 9.01996567E-06-1.55129833E-05-3.44456186E-05
 4  5 4.12534071E-08-7.58457394E-04 4.43666847E-04-3.96532385E-06-5.31028001E-05
 4  6-1.36509759E-04 1.89612559E-04-8.03251386E-05-7.83023625E-07 7.29140959E-07
 4  7 5.00046330E-01 2.50104294E-03-7.40722762E-03-4.82540003E-05 3.18479235E-05
 4  8-2.72838636E-07 2.00197760E-03-3.13453542E-03 1.57386140E-05 1.84382509E-04
 4  9 1.21799601E-04-3.06182110E-04 8.88301212E-06 1.99037298E-06-1.30278524E-06
 4 10-4.98018332E-01-2.49222932E-03 7.38731150E-03-4.45745565E-06 5.76716890E-05
 4 11-1.67012923E-07 1.76633987E-03-3.27753798E-03 1.51647268E-05-1.42778483E-04
 4 12-1.63208208E-04 3.05986691E-04-3.49022315E-05-1.76682379E-06 1.35232396E-06
 4 13-4.62893670E-02-1.29800878E-04-6.77329614E-06 3.74393717E-05-3.17444290E-06
 4 14 1.43559341E-07-1.39871584E-05 8.80770815E-04-2.40751171E-06 1.75497859E-04
 4 15 1.38415579E-05-1.89339417E-04 1.59686361E-06 1.51947698E-06-6.27375547E-07
 4 16-5.41169518E-03-3.90946276E-05 5.84728989E-04-6.06848182E-06-1.67370726E-06
 4 17-1.45590265E-08 1.46610139E-04 6.23368238E-05 3.46134870E-07-1.24841764E-05
 4 18-1.70144118E-05 2.94985881E-05-2.24114374E-05-1.15480577E-07 6.54250021E-08
 4 19 2.54640813E-04 1.52113881E-07 5.19331586E-06 8.62859500E-05 5.05844941E-05
 4 20 1.65211711E-07 6.78265561E-04 4.00487545E-04 1.26312196E-06-8.22714932E-05
 4 21 8.20330870E-05 2.38406146E-07 5.30178649E-05-4.87543334E-07-6.77305790E-08
 4 22 2.75153439E-04 2.11173325E-07 4.97426794E-06-8.62861178E-05-5.05757432E-05
 4 23-1.73018126E-07-6.78279867E-04-4.00761917E-04-1.32785889E-06-8.23006835E-05
 4 24 8.20054065E-05 2.95277090E-07 5.30096410E-05-4.80338550E-07-7.69565943E-08
 4 25 5.00099765E-01 2.50133272E-03-7.40846000E-03 4.82647818E-05-3.18531940E-05
 4 26 2.49777985E-07-2.00252764E-03 3.13513934E-03-1.55290243E-05 1.84416435E-04
 4 27 1.21814233E-04-3.06230667E-04 8.89234825E-06 1.98405315E-06-1.30398309E-06
 4 28-4.98129721E-01-2.49279121E-03 7.38919744E-03 4.45411684E-06-5.76793724E-05
 4 29 1.63646363E-07-1.76656515E-03 3.27816020E-03-1.50748772E-05-1.42809252E-04
 4 30-1.63226208E-04 3.06035460E-04-3.49269738E-05-1.72802983E-06 1.34070085E-06
 4 31-4.63017806E-02-1.29822632E-04-7.01446854E-06-3.74454490E-05 3.17718892E-06
 4 32-1.38180841E-07 1.40831945E-05-8.81007670E-04 2.41990022E-06 1.75532643E-04
 4 33 1.38378374E-05-1.89370480E-04 1.58957078E-06 1.48050932E-06-6.29699430E-07
 4 34-8.97331644E-05-3.15332563E-04 1.05524782E-05-2.57672567E-05 1.02657519E-07
 4 35-5.41329701E-03-3.91043337E-05 5.84981926E-04 6.06611350E-06 1.66947499E-06
 4 36 1.83597586E-08-1.46722146E-04-6.23425945E-05-3.40540051E-07-1.24886188E-05
 4 37-1.70123048E-05 2.95009235E-05-2.24147567E-05-1.10836770E-07 6.92688612E-08
 4 38 5.44808014E-03 3.86235821E-05-5.81390649E-04-4.29954511E-06-4.42137125E-06
 4 39-2.07814085E-09 1.24144587E-04 9.84797346E-05 1.62970565E-07 3.25414346E-05
 4 40-2.83086403E-06-2.97105706E-05 9.67517915E-06 2.24064457E-07-4.63440392E-08
 4 41 4.65460225E-02 1.29936841E-04 9.16779386E-06 1.55155956E-05 3.44487074E-05
 4 42-3.39502832E-08 7.58662626E-04-4.43805156E-04 3.85761563E-06-5.31066770E-05
 4 43-1.36526727E-04 1.89633404E-04-8.03342098E-05-7.76491433E-07 7.30357640E-07
 4 44 2.39287760E-08 5.74180280E-07-2.68345550E-06-1.42030762E-06-3.21813305E-10
 4 45 2.99313556E-06-1.78129823E-05 1.87316234E-06-5.16499554E-06 2.02700774E-08
 4 46 8.95703242E-05 3.15874172E-04-1.76146931E-05 2.17656307E-05-1.23706733E-07
 4 47-8.97147862E-05-3.15256640E-04-1.05548338E-05 2.57629829E-05-1.06686385E-07
 4 48-3.26425752E-06 1.81174799E-05 3.58980443E-06-4.18379227E-06 2.50056577E-08
 4 49 5.81939613E-08 6.77867403E-07 2.69142262E-06 1.41439073E-06 6.97258064E-09
 4 50-3.26110004E-06 1.81356573E-05-3.58852709E-06 4.18481510E-06-2.39743242E-08
 4 51 2.99384010E-06-1.78347623E-05-1.87420550E-06 5.16381554E-06-2.03251927E-08
 4 52 8.95888958E-05 3.15938623E-04 1.76162413E-05-2.17653257E-05 1.16528621E-07
 5  1 3.59843593E-01 1.39400166E-03-1.89820395E-03-4.36979799E-05-2.38813917E-05
 5  2-9.53893458E-08-5.39035940E-05 1.66531041E-04-6.35604643E-07 1.52284198E-06
 5  3 1.04748618E-05-1.19977038E-05 7.36611008E-05-1.43750915E-07 1.96678003E-07
 5  4 3.12028846E-01 1.25630715E-03-2.43718983E-03 4.79221163E-05-1.61923181E-05
 5  5 2.18941783E-07-3.27159873E-04-6.40575129E-04 5.55700394E-07 8.17529061E-05
 5  6 1.67155244E-06-8.34244585E-05-3.05752671E-05 7.73369130E-07-3.81847697E-07
 5  7-2.88663987E-03-7.35530834E-05-2.32427738E-04 4.97287543E-05 3.59222193E-05
 5  8 8.28832904E-08-1.35623548E-03-6.67763951E-04-3.01517871E-06 3.49119905E-05
 5  9-3.07827087E-05-4.12928174E-06-7.14081898E-06 1.84194728E-07 5.94499187E-08
 5 10-2.10903161E-03-6.99602872E-05-2.48063202E-04 5.49176101E-05 2.55489854E-05
 5 11 1.27772577E-07-1.20717324E-03-8.60751298E-04-1.98890830E-06-1.81888382E-05
 5 12 2.60976510E-05-7.90881285E-06 2.69947843E-05-1.19779789E-07-5.53092604E-09
 5 13 3.04772001E-01 1.22359243E-03-2.35749939E-03 8.01325840E-06 4.85879271E-05
 5 14-1.04357408E-07-7.00808313E-04 2.24321257E-05-2.58170976E-06-2.48477941E-06
 5 15 8.39907740E-05-8.15059946E-05 2.33040295E-05 2.58012562E-07-4.31142154E-07
 5 16 3.54795735E-01 1.37290357E-03-1.86430546E-03-4.17246718E-05-2.54249180E-05
 5 17-8.05149718E-08 1.18541814E-04-1.38687090E-04 7.90219544E-07 6.19778701E-05
 5 18-5.19108486E-05-1.00670215E-05 3.43078854E-05 2.07679751E-07 2.54794834E-07
 5 19-2.31076121E-01-1.24696532E-03 4.28876421E-03-1.46852188E-05 2.44054307E-05
 5 20-1.19021529E-07-5.41965225E-04 9.26541497E-04-4.44024944E-06 7.85541597E-06
 5 21-2.69597082E-05 1.91042922E-05 3.60976502E-05-1.41433832E-07 2.72311087E-07
 5 22-2.31055403E-01-1.24679969E-03 4.28690549E-03 1.46471418E-05-2.44182603E-05
 5 23 1.17960792E-07 5.47989361E-04-9.22074198E-04 4.44315851E-06 7.95257340E-06
 5 24-2.70985833E-05 1.91460099E-05 3.60140586E-05-1.32357882E-07 2.69231282E-07
 5 25-3.03652236E-03-7.46690793E-05-2.29891887E-04-4.99975414E-05-3.60938395E-05
 5 26-7.85300973E-08 1.36173644E-03 6.69729036E-04 3.02208615E-06 3.47949641E-05
 5 27-3.09601441E-05-3.83481999E-06-7.19030063E-06 1.83312842E-07 5.59628985E-08
 5 28-2.27500370E-03-7.11144825E-05-2.46342556E-04-5.52152071E-05-2.57026003E-05
 5 29-1.26980918E-07 1.21395224E-03 8.65503641E-04 1.91793730E-06-1.84449255E-05
 5 30 2.59470090E-05-7.50208348E-06 2.70193303E-05-1.18394715E-07-1.19799184E-08
 5 31 3.06715430E-01 1.23150015E-03-2.37135937E-03-8.19833123E-06-4.89809447E-05
 5 32 9.78605410E-08 7.06924802E-04-2.06845784E-05 2.55717872E-06-2.47690894E-06
 5 33 8.45969904E-05-8.21200815E-05 2.34963170E-05 2.55030534E-07-4.31277906E-07
 5 34-1.01637721E-04 3.60048188E-04 5.25195420E-05-9.01286451E-05 4.24536172E-07
 5 35 3.57053218E-01 1.38182876E-03-1.87874967E-03 4.20082098E-05 2.57126700E-05
 5 36 8.26347209E-08-1.19069686E-04 1.40465755E-04-8.11856484E-07 6.23679061E-05
 5 37-5.22748782E-05-1.00930279E-05 3.44969892E-05 2.05631480E-07 2.52505406E-07
 5 38 3.61992106E-01 1.40251170E-03-1.91272758E-03 4.40650417E-05 2.39965140E-05
 5 39 8.72140307E-08 5.58224625E-05-1.67727806E-04 6.58494988E-07 1.43459662E-06
 5 40 1.05506817E-05-1.19852783E-05 7.41433372E-05-1.48114987E-07 1.83323376E-07
 5 41 3.13772871E-01 1.26327938E-03-2.44768854E-03-4.83253637E-05 1.62285468E-05
 5 42-2.12145626E-07 3.31937404E-04 6.44202941E-04-5.71070947E-07 8.23326221E-05
 5 43 1.65133057E-06-8.39839527E-05-3.07608512E-05 7.53067048E-07-3.67089426E-07
 5 44 3.86181302E-05-9.74897055E-05-4.91287638E-05 8.39033912E-05-4.03667750E-07
 5 45-1.00473282E-04 5.33542022E-04-5.22434392E-05-1.06121279E-04 9.83805878E-08
 5 46-1.02919413E-04 3.64312208E-04 5.43076565E-05-9.18168931E-05 4.46991083E-07
 5 47-1.01091403E-04 3.58076993E-04-5.21701360E-05 8.94723415E-05-4.29999694E-07
 5 48-9.92979749E-05 5.27552262E-04-1.15800274E-04 5.68784495E-06-4.30499459E-07
 5 49 3.86146042E-05-9.76311661E-05 4.88233033E-05-8.40977719E-05 4.02464084E-07
 5 50-9.98155945E-05 5.30834857E-04 1.16558900E-04-5.78129051E-06 4.25610286E-07
 5 51-1.00980168E-04 5.36608837E-04 5.25089392E-05 1.06784252E-04-1.03375295E-07
 5 52-1.03396654E-04 3.66240150E-04-5.46779903E-05 9.23711409E-05-4.40082995E-07
 6  1 3.87423818E-01 1.53264165E-03-2.51358856E-03-6.64105858E-05-1.92245206E-05
 6  2-1.90558481E-07-2.59484538E-04 2.27578921E-04-1.53894836E-06-1.04339485E-05
 6  3 1.34894648E-05-3.05551628E-06 8.24011117E-05-2.52765323E-07 2.47572566E-07
 6  4 3.26635385E-01 1.32214252E-03-2.23072986E-03 7.36366307E-05-5.81378745E-06
 6  5 2.84186666E-07-7.95236298E-04-7.39282235E-04-8.60257844E-07 1.03762868E-04
 6  6-1.23314070E-06-1.02529728E-04-3.33640658E-05 9.52908610E-07-4.43062182E-07
 6  7-2.73208701E-02-1.94749755E-04 3.32327997E-04 4.86297213E-05 3.17943856E-05
 6  8 9.20503870E-08-1.21236678E-03-5.36427933E-04-2.85998738E-06-2.35138287E-05
 6  9-3.78852583E-05 6.13990870E-05-7.54317817E-06-3.25025125E-07 2.85102872E-07
 6 10-2.75338889E-02-1.99382077E-04 4.05148509E-04 4.99106182E-05 2.63873144E-05
 6 11 1.12705724E-07-8.94251580E-04-7.06234492E-04-1.31587022E-06-3.90596937E-05
 6 12-2.14993819E-05 6.05590756E-05 2.75823740E-06-4.22718088E-07 2.65406430E-07
 6 13 3.17290658E-01 1.27689082E-03-2.02799422E-03 3.03789739E-05 6.60358065E-05
 6 14-6.77664775E-08-9.93586630E-04-3.87081834E-04-2.52620638E-06-5.73259473E-07
 6 15 1.02813764E-04-1.02240504E-04 3.45054478E-05 3.27392145E-07-5.14919311E-07
 6 16 3.81255333E-01 1.50900539E-03-2.53689572E-03-4.91251034E-05-4.78240087E-05
 6 17-4.76647750E-08 4.04586228E-05-3.65587122E-04 1.12739200E-06 6.79635187E-05
 6 18-6.86533626E-05 6.89843924E-07 3.15720911E-05 1.96317136E-07 3.32713724E-07
 6 19-5.65685023E-03-3.19359680E-05 1.85666172E-04 5.52389778E-06 4.02829058E-06
 6 20 6.34674681E-09-1.15246116E-03-6.03632396E-04-2.43018790E-06 2.03549195E-05
 6 21-2.05613232E-05 2.06403653E-07-1.24654608E-05 1.21686379E-07 2.54098810E-08
 6 22 4.17938948E-03 2.40779033E-05-1.59268678E-04 5.62050216E-06 3.88571378E-06
 6 23 9.86679590E-09-1.14905313E-03-6.09279171E-04-2.43276039E-06-2.03502318E-05
 6 24 2.03534875E-05-3.25565791E-09 1.26749353E-05-1.17028274E-07-2.34956205E-08
 6 25 2.73070779E-02 1.94391542E-04-3.33873031E-04 4.83148793E-05 3.15817684E-05
 6 26 8.37875216E-08-1.20389349E-03-5.31907765E-04-2.83743518E-06 2.37372679E-05
 6 27 3.76619096E-05-6.13991775E-05 7.51243144E-06 3.31381475E-07-2.77889180E-07
 6 28 2.75530148E-02 1.99188059E-04-4.07512698E-04 4.96004770E-05 2.62338968E-05
 6 29 1.05876778E-07-8.87650502E-04-7.01104067E-04-1.21296081E-06 3.90166333E-05
 6 30 2.16964867E-05-6.07131200E-05-2.61345745E-06 4.13651337E-07-2.64642815E-07
 6 31-3.15683012E-01-1.27047943E-03 2.01579633E-03 3.03591017E-05 6.57797796E-05
 6 32-6.37540298E-08-9.89839146E-04-3.87188580E-04-2.45180743E-06 5.29191064E-07
 6 33-1.02366474E-04 1.01837283E-04-3.43705506E-05-3.15600007E-07 5.08885877E-07
 6 34 8.71729002E-05-3.39750983E-04-5.60233545E-05 1.07459842E-04-4.82186879E-07
 6 35-3.79320240E-01-1.50152495E-03 2.52677840E-03-4.88963790E-05-4.77049811E-05
 6 36-4.77337370E-08 3.98418996E-05-3.64633367E-04 1.14245865E-06-6.76176558E-05
 6 37 6.83412091E-05-7.23553223E-07-3.13874243E-05-1.92217336E-07-3.27432730E-07
 6 38-3.85310528E-01-1.52443718E-03 2.50249761E-03-6.61510774E-05-1.90914229E-05
 6 39-1.78131405E-07-2.59389082E-04 2.26646847E-04-1.52509151E-06 1.04632139E-05
 6 40-1.34329865E-05 2.96977258E-06-8.19905140E-05 2.51510581E-07-2.30628265E-07
 6 41-3.24729498E-01-1.31437526E-03 2.21509759E-03 7.33425435E-05-5.72501201E-06
 6 42 2.73452519E-07-7.93337969E-04-7.35168668E-04-8.16976832E-07-1.03282164E-04
 6 43 1.24525357E-06 1.02036911E-04 3.31792652E-05-9.18376401E-07 4.25524815E-07
 6 44 1.89729722E-06 6.31850293E-06 5.39983334E-05 3.35825486E-05 1.00108452E-07
 6 45-8.98981553E-05 5.61035098E-04-4.91580346E-05-1.21036874E-04 1.50074659E-07
 6 46-9.09678427E-05 3.38953463E-04 6.80690097E-05-1.04171289E-04 5.30637798E-07
 6 47-8.77059659E-05 3.41676198E-04-5.62840442E-05 1.07919460E-04-4.93221885E-07
 6 48-8.88806594E-05 5.47347296E-04-1.26168800E-04 1.60969147E-05-4.96649917E-07
 6 49-1.59548097E-06-6.96231767E-06 5.43096066E-05 3.30260107E-05 1.05760147E-07
 6 50 8.83309844E-05-5.44463986E-04-1.25545226E-04 1.60727632E-05-4.85203740E-07
 6 51 8.93200912E-05-5.57909396E-04-4.88518016E-05-1.20406791E-04 1.52689250E-07
 6 52 9.03539704E-05-3.36799664E-04 6.77308562E-05-1.03607333E-04 5.14559449E-07
 7  1 5.58317786E-02 1.22963289E-04 2.99068428E-03 2.68155165E-05 1.27355468E-05
 7  2 6.10821539E-08 1.37047420E-03 1.14765491E-03 1.81653209E-06 7.64583827E-05
 7  3 1.61101342E-05-9.25685169E-05-5.96731309E-05 8.63676041E-07-5.58373074E-07
 7  4 1.22809137E-01 7.25024227E-04-6.28542077E-03-1.52706823E-05-4.20039913E-05
 7  5 5.50738404E-08 1.42489739E-03-2.30697850E-03 1.13853309E-05-6.39675207E-05
 7  6-5.01900163E-05 1.14157537E-04-4.09375162E-05-6.29490619E-07 3.59758272E-07
 7  7 7.04258783E-02 4.95883201E-04-3.18437270E-03 7.93481542E-05 4.58149436E-05
 7  8 1.55698934E-07-7.12382913E-03-2.86582342E-03-1.75791546E-05 1.30487254E-04
 7  9 1.60176302E-04-2.90663556E-04-7.51709432E-05 1.94040959E-06-1.68451198E-06
 7 10-6.99806274E-02-4.92703377E-04 3.18009242E-03-7.96184668E-05-4.76519039E-05
 7 11-1.53700035E-07 5.98989639E-03 4.84612669E-03 8.29787593E-06-9.72688498E-05
 7 12-1.92694319E-04 2.89963169E-04 5.39436376E-05-1.74603911E-06 1.70354328E-06
 7 13-1.28607943E-01-7.48397876E-04 6.32489756E-03 4.35871785E-05-8.30900884E-06
 7 14 1.85671841E-07 1.34304546E-03-2.35949781E-03 1.12390564E-05 8.37527956E-05
 7 15 2.88484756E-05-1.12601271E-04 2.76688684E-05 7.48116404E-07-3.42766255E-07
 7 16-6.32919911E-02-1.52711262E-04-2.94085728E-03-2.32220425E-05-1.63838087E-05
 7 17-4.08641923E-08-1.67017461E-03-6.32027831E-04-4.31237555E-06 1.21457694E-05
 7 18-1.04882041E-04 9.27362718E-05 1.11474880E-06-3.37715074E-07 6.25833308E-07
 7 19-6.73258283E-01-3.53855007E-03 1.66346040E-02-2.24929109E-05 3.80473183E-05
 7 20-1.78717520E-07-2.46612490E-03 4.21896726E-03-2.02277936E-05-1.29594866E-04
 7 21-1.51765766E-04 2.81360633E-04 2.38088711E-05-1.74541843E-06 1.44344426E-06
 7 22 6.74406020E-01 3.54388723E-03-1.66481857E-02-2.25331486E-05 3.81099477E-05
 7 23-1.74677592E-07-2.46771890E-03 4.22180492E-03-2.02271354E-05 1.29906096E-04
 7 24 1.52148211E-04-2.82054307E-04-2.38450641E-05 1.75518529E-06-1.42983339E-06
 7 25-7.05475570E-02-4.96862133E-04 3.18855779E-03 7.94720501E-05 4.58123033E-05
 7 26 1.63981664E-07-7.12638793E-03-2.86717780E-03-1.75137192E-05-1.30736175E-04
 7 27-1.60233453E-04 2.90969627E-04 7.51325889E-05-1.92445512E-06 1.67412896E-06
 7 28 6.98510788E-02 4.91678418E-04-3.17568805E-03-7.95648024E-05-4.75383019E-05
 7 29-1.46217567E-07 5.98791071E-03 4.84438781E-03 7.97022519E-06 9.71037077E-05
 7 30 1.92510593E-04-2.89614300E-04-5.40527513E-05 1.72821992E-06-1.69791459E-06
 7 31 1.28758365E-01 7.48860478E-04-6.32444828E-03 4.35239512E-05-8.34709631E-06
 7 32 1.70596606E-07 1.34277873E-03-2.35893787E-03 1.11082971E-05-8.36308610E-05
 7 33-2.87605430E-05 1.12391404E-04-2.76674170E-05-7.15655261E-07 3.45376164E-07
 7 34-6.54480726E-05-4.27653521E-04-1.22489003E-05 9.98493538E-06-7.55289445E-08
 7 35 6.34892422E-02 1.53435964E-04 2.93948699E-03-2.31853824E-05-1.63108683E-05
 7 36-3.48009709E-08-1.67016993E-03-6.31955033E-04-4.15573663E-06-1.20914821E-05
 7 37 1.04853058E-04-9.27615764E-05-1.09232445E-06 3.27101938E-07-6.18979328E-07