 $SYSTEM MWORDS=400 TIMLIM=1440  $END

 $CONTRL ISPHER=1 SCFTYP=None RUNTYP=Energy CITYP=GENCI  $END

 $BASIS GBASIS=CCD  $END

 $CIGEN PURES=.TRUE. NFLGDM(1)=1,1 GLIST=INPUT NCORE=29 ITERMX=600 
 NACT=10 NELS=10 NSTATE=5 PRTTOL=0.00  $END

 $GUESS GUESS=MOREAD NORB=180 NORDER=1 IORDER(27)=30 IORDER(30)=27 
 IORDER(45)=38 IORDER(38)=45 IORDER(48)=39 IORDER(39)=48  $END

 $DATA 
 naphthalene
 C1
 C 6   -4.111788    -0.444693     0.000332
 C 6   -2.743340    -0.442836     0.000154
 C 6   -2.019606     0.768761     0.000237
 C 6   -2.740444     1.999993     0.000513
 C 6   -4.151192     1.961676     0.000694
 C 6   -4.822466     0.769219     0.000606
 H 1   -0.064505    -0.130110    -0.000158
 H 1   -4.653284    -1.381976     0.000263
 H 1   -2.192289    -1.376101    -0.000055
 C 6   -0.608854     0.807076     0.000058
 C 6   -2.016714     3.211599     0.000600
 H 1   -4.695554     2.898855     0.000908
 H 1   -5.904837     0.755656     0.000746
 C 6   -0.648269     3.213447     0.000425
 C 6    0.062411     1.999537     0.000150
 H 1   -2.567774     4.144855     0.000805
 H 1   -0.106753     4.150721     0.000500
 H 1    1.144782     2.013107     0.000012
 $END

 $GCILST 
 251
 2 2 2 2 2 0 0 0 0 0 
 0 2 2 2 2 0 0 0 0 2 
 0 2 2 2 2 0 0 0 1 1 
 0 2 2 2 2 0 0 0 2 0 
 0 2 2 2 2 0 0 1 0 1 
 0 2 2 2 2 0 0 1 1 0 
 0 2 2 2 2 0 0 2 0 0 
 0 2 2 2 2 0 1 0 0 1 
 0 2 2 2 2 0 1 0 1 0 
 0 2 2 2 2 0 1 1 0 0 
 0 2 2 2 2 0 2 0 0 0 
 0 2 2 2 2 1 0 0 0 1 
 0 2 2 2 2 1 0 0 1 0 
 0 2 2 2 2 1 0 1 0 0 
 0 2 2 2 2 1 1 0 0 0 
 0 2 2 2 2 2 0 0 0 0 
 1 1 2 2 2 0 0 0 0 2 
 1 1 2 2 2 0 0 0 1 1 
 1 1 2 2 2 0 0 0 2 0 
 1 1 2 2 2 0 0 1 0 1 
 1 1 2 2 2 0 0 1 1 0 
 1 1 2 2 2 0 0 2 0 0 
 1 1 2 2 2 0 1 0 0 1 
 1 1 2 2 2 0 1 0 1 0 
 1 1 2 2 2 0 1 1 0 0 
 1 1 2 2 2 0 2 0 0 0 
 1 1 2 2 2 1 0 0 0 1 
 1 1 2 2 2 1 0 0 1 0 
 1 1 2 2 2 1 0 1 0 0 
 1 1 2 2 2 1 1 0 0 0 
 1 1 2 2 2 2 0 0 0 0 
 1 2 1 2 2 0 0 0 0 2 
 1 2 1 2 2 0 0 0 1 1 
 1 2 1 2 2 0 0 0 2 0 
 1 2 1 2 2 0 0 1 0 1 
 1 2 1 2 2 0 0 1 1 0 
 1 2 1 2 2 0 0 2 0 0 
 1 2 1 2 2 0 1 0 0 1 
 1 2 1 2 2 0 1 0 1 0 
 1 2 1 2 2 0 1 1 0 0 
 1 2 1 2 2 0 2 0 0 0 
 1 2 1 2 2 1 0 0 0 1 
 1 2 1 2 2 1 0 0 1 0 
 1 2 1 2 2 1 0 1 0 0 
 1 2 1 2 2 1 1 0 0 0 
 1 2 1 2 2 2 0 0 0 0 
 1 2 2 1 2 0 0 0 0 2 
 1 2 2 1 2 0 0 0 1 1 
 1 2 2 1 2 0 0 0 2 0 
 1 2 2 1 2 0 0 1 0 1 
 1 2 2 1 2 0 0 1 1 0 
 1 2 2 1 2 0 0 2 0 0 
 1 2 2 1 2 0 1 0 0 1 
 1 2 2 1 2 0 1 0 1 0 
 1 2 2 1 2 0 1 1 0 0 
 1 2 2 1 2 0 2 0 0 0 
 1 2 2 1 2 1 0 0 0 1 
 1 2 2 1 2 1 0 0 1 0 
 1 2 2 1 2 1 0 1 0 0 
 1 2 2 1 2 1 1 0 0 0 
 1 2 2 1 2 2 0 0 0 0 
 1 2 2 2 1 0 0 0 0 2 
 1 2 2 2 1 0 0 0 1 1 
 1 2 2 2 1 0 0 0 2 0 
 1 2 2 2 1 0 0 1 0 1 
 1 2 2 2 1 0 0 1 1 0 
 1 2 2 2 1 0 0 2 0 0 
 1 2 2 2 1 0 1 0 0 1 
 1 2 2 2 1 0 1 0 1 0 
 1 2 2 2 1 0 1 1 0 0 
 1 2 2 2 1 0 2 0 0 0 
 1 2 2 2 1 1 0 0 0 1 
 1 2 2 2 1 1 0 0 1 0 
 1 2 2 2 1 1 0 1 0 0 
 1 2 2 2 1 1 1 0 0 0 
 1 2 2 2 1 2 0 0 0 0 
 1 2 2 2 2 0 0 0 0 1 
 1 2 2 2 2 0 0 0 1 0 
 1 2 2 2 2 0 0 1 0 0 
 1 2 2 2 2 0 1 0 0 0 
 1 2 2 2 2 1 0 0 0 0 
 2 0 2 2 2 0 0 0 0 2 
 2 0 2 2 2 0 0 0 1 1 
 2 0 2 2 2 0 0 0 2 0 
 2 0 2 2 2 0 0 1 0 1 
 2 0 2 2 2 0 0 1 1 0 
 2 0 2 2 2 0 0 2 0 0 
 2 0 2 2 2 0 1 0 0 1 
 2 0 2 2 2 0 1 0 1 0 
 2 0 2 2 2 0 1 1 0 0 
 2 0 2 2 2 0 2 0 0 0 
 2 0 2 2 2 1 0 0 0 1 
 2 0 2 2 2 1 0 0 1 0 
 2 0 2 2 2 1 0 1 0 0 
 2 0 2 2 2 1 1 0 0 0 
 2 0 2 2 2 2 0 0 0 0 
 2 1 1 2 2 0 0 0 0 2 
 2 1 1 2 2 0 0 0 1 1 
 2 1 1 2 2 0 0 0 2 0 
 2 1 1 2 2 0 0 1 0 1 
 2 1 1 2 2 0 0 1 1 0 
 2 1 1 2 2 0 0 2 0 0 
 2 1 1 2 2 0 1 0 0 1 
 2 1 1 2 2 0 1 0 1 0 
 2 1 1 2 2 0 1 1 0 0 
 2 1 1 2 2 0 2 0 0 0 
 2 1 1 2 2 1 0 0 0 1 
 2 1 1 2 2 1 0 0 1 0 
 2 1 1 2 2 1 0 1 0 0 
 2 1 1 2 2 1 1 0 0 0 
 2 1 1 2 2 2 0 0 0 0 
 2 1 2 1 2 0 0 0 0 2 
 2 1 2 1 2 0 0 0 1 1 
 2 1 2 1 2 0 0 0 2 0 
 2 1 2 1 2 0 0 1 0 1 
 2 1 2 1 2 0 0 1 1 0 
 2 1 2 1 2 0 0 2 0 0 
 2 1 2 1 2 0 1 0 0 1 
 2 1 2 1 2 0 1 0 1 0 
 2 1 2 1 2 0 1 1 0 0 
 2 1 2 1 2 0 2 0 0 0 
 2 1 2 1 2 1 0 0 0 1 
 2 1 2 1 2 1 0 0 1 0 
 2 1 2 1 2 1 0 1 0 0 
 2 1 2 1 2 1 1 0 0 0 
 2 1 2 1 2 2 0 0 0 0 
 2 1 2 2 1 0 0 0 0 2 
 2 1 2 2 1 0 0 0 1 1 
 2 1 2 2 1 0 0 0 2 0 
 2 1 2 2 1 0 0 1 0 1 
 2 1 2 2 1 0 0 1 1 0 
 2 1 2 2 1 0 0 2 0 0 
 2 1 2 2 1 0 1 0 0 1 
 2 1 2 2 1 0 1 0 1 0 
 2 1 2 2 1 0 1 1 0 0 
 2 1 2 2 1 0 2 0 0 0 
 2 1 2 2 1 1 0 0 0 1 
 2 1 2 2 1 1 0 0 1 0 
 2 1 2 2 1 1 0 1 0 0 
 2 1 2 2 1 1 1 0 0 0 
 2 1 2 2 1 2 0 0 0 0 
 2 1 2 2 2 0 0 0 0 1 
 2 1 2 2 2 0 0 0 1 0 
 2 1 2 2 2 0 0 1 0 0 
 2 1 2 2 2 0 1 0 0 0 
 2 1 2 2 2 1 0 0 0 0 
 2 2 0 2 2 0 0 0 0 2 
 2 2 0 2 2 0 0 0 1 1 
 2 2 0 2 2 0 0 0 2 0 
 2 2 0 2 2 0 0 1 0 1 
 2 2 0 2 2 0 0 1 1 0 
 2 2 0 2 2 0 0 2 0 0 
 2 2 0 2 2 0 1 0 0 1 
 2 2 0 2 2 0 1 0 1 0 
 2 2 0 2 2 0 1 1 0 0 
 2 2 0 2 2 0 2 0 0 0 
 2 2 0 2 2 1 0 0 0 1 
 2 2 0 2 2 1 0 0 1 0 
 2 2 0 2 2 1 0 1 0 0 
 2 2 0 2 2 1 1 0 0 0 
 2 2 0 2 2 2 0 0 0 0 
 2 2 1 1 2 0 0 0 0 2 
 2 2 1 1 2 0 0 0 1 1 
 2 2 1 1 2 0 0 0 2 0 
 2 2 1 1 2 0 0 1 0 1 
 2 2 1 1 2 0 0 1 1 0 
 2 2 1 1 2 0 0 2 0 0 
 2 2 1 1 2 0 1 0 0 1 
 2 2 1 1 2 0 1 0 1 0 
 2 2 1 1 2 0 1 1 0 0 
 2 2 1 1 2 0 2 0 0 0 
 2 2 1 1 2 1 0 0 0 1 
 2 2 1 1 2 1 0 0 1 0 
 2 2 1 1 2 1 0 1 0 0 
 2 2 1 1 2 1 1 0 0 0 
 2 2 1 1 2 2 0 0 0 0 
 2 2 1 2 1 0 0 0 0 2 
 2 2 1 2 1 0 0 0 1 1 
 2 2 1 2 1 0 0 0 2 0 
 2 2 1 2 1 0 0 1 0 1 
 2 2 1 2 1 0 0 1 1 0 
 2 2 1 2 1 0 0 2 0 0 
 2 2 1 2 1 0 1 0 0 1 
 2 2 1 2 1 0 1 0 1 0 
 2 2 1 2 1 0 1 1 0 0 
 2 2 1 2 1 0 2 0 0 0 
 2 2 1 2 1 1 0 0 0 1 
 2 2 1 2 1 1 0 0 1 0 
 2 2 1 2 1 1 0 1 0 0 
 2 2 1 2 1 1 1 0 0 0 
 2 2 1 2 1 2 0 0 0 0 
 2 2 1 2 2 0 0 0 0 1 
 2 2 1 2 2 0 0 0 1 0 
 2 2 1 2 2 0 0 1 0 0 
 2 2 1 2 2 0 1 0 0 0 
 2 2 1 2 2 1 0 0 0 0 
 2 2 2 0 2 0 0 0 0 2 
 2 2 2 0 2 0 0 0 1 1 
 2 2 2 0 2 0 0 0 2 0 
 2 2 2 0 2 0 0 1 0 1 
 2 2 2 0 2 0 0 1 1 0 
 2 2 2 0 2 0 0 2 0 0 
 2 2 2 0 2 0 1 0 0 1 
 2 2 2 0 2 0 1 0 1 0 
 2 2 2 0 2 0 1 1 0 0 
 2 2 2 0 2 0 2 0 0 0 
 2 2 2 0 2 1 0 0 0 1 
 2 2 2 0 2 1 0 0 1 0 
 2 2 2 0 2 1 0 1 0 0 
 2 2 2 0 2 1 1 0 0 0 
 2 2 2 0 2 2 0 0 0 0 
 2 2 2 1 1 0 0 0 0 2 
 2 2 2 1 1 0 0 0 1 1 
 2 2 2 1 1 0 0 0 2 0 
 2 2 2 1 1 0 0 1 0 1 
 2 2 2 1 1 0 0 1 1 0 
 2 2 2 1 1 0 0 2 0 0 
 2 2 2 1 1 0 1 0 0 1 
 2 2 2 1 1 0 1 0 1 0 
 2 2 2 1 1 0 1 1 0 0 
 2 2 2 1 1 0 2 0 0 0 
 2 2 2 1 1 1 0 0 0 1 
 2 2 2 1 1 1 0 0 1 0 
 2 2 2 1 1 1 0 1 0 0 
 2 2 2 1 1 1 1 0 0 0 
 2 2 2 1 1 2 0 0 0 0 
 2 2 2 1 2 0 0 0 0 1 
 2 2 2 1 2 0 0 0 1 0 
 2 2 2 1 2 0 0 1 0 0 
 2 2 2 1 2 0 1 0 0 0 
 2 2 2 1 2 1 0 0 0 0 
 2 2 2 2 0 0 0 0 0 2 
 2 2 2 2 0 0 0 0 1 1 
 2 2 2 2 0 0 0 0 2 0 
 2 2 2 2 0 0 0 1 0 1 
 2 2 2 2 0 0 0 1 1 0 
 2 2 2 2 0 0 0 2 0 0 
 2 2 2 2 0 0 1 0 0 1 
 2 2 2 2 0 0 1 0 1 0 
 2 2 2 2 0 0 1 1 0 0 
 2 2 2 2 0 0 2 0 0 0 
 2 2 2 2 0 1 0 0 0 1 
 2 2 2 2 0 1 0 0 1 0 
 2 2 2 2 0 1 0 1 0 0 
 2 2 2 2 0 1 1 0 0 0 
 2 2 2 2 0 2 0 0 0 0 
 2 2 2 2 1 0 0 0 0 1 
 2 2 2 2 1 0 0 0 1 0 
 2 2 2 2 1 0 0 1 0 0 
 2 2 2 2 1 0 1 0 0 0 
 2 2 2 2 1 1 0 0 0 0 
 $END

--- CLOSED SHELL ORBITALS --- GENERATED AT Sun Dec 13 11:57:21 2020
 naphthalene                                                                    
E(RHF)=     -383.3842115689, E(NUC)=  460.0194657632,   11 ITERS
 $VEC   
 1  1 7.04876339E-03-1.20049943E-04 7.24947215E-04-4.13077626E-05-1.29978137E-05
 1  2 4.18598112E-09 3.40563152E-04-2.23755842E-04-7.48787534E-08 3.01479751E-05
 1  3 2.75793309E-05-5.77273060E-05 2.50982671E-05-5.52126162E-09 1.38115803E-08
 1  4 6.82121443E-02 1.41519597E-06 1.34860453E-03-6.15491623E-06-5.21457868E-05
 1  5-7.28428188E-09 1.05636569E-03 1.09467094E-03 1.84972809E-08 2.26502426E-05
 1  6-1.40779305E-04 1.18129062E-04-4.27022607E-05 1.06355196E-08-3.95076651E-08
 1  7 7.01720878E-01 3.11181178E-03-7.06288308E-03 2.73367506E-05-4.66237777E-05
 1  8-1.06994302E-08-7.37550017E-04 1.25930163E-03 2.89166632E-07 9.20293135E-05
 1  9-3.68365260E-05-5.51927875E-05 1.32845158E-04-3.83718500E-09-1.28286127E-08
 1 10 7.01890456E-01 3.11268679E-03-7.06591420E-03-2.73404476E-05 4.66095974E-05
 1 11 1.24720552E-08 7.36901379E-04-1.25802735E-03-2.96230432E-07 9.20920184E-05
 1 12-3.67982380E-05-5.52937804E-05 1.32859791E-04-3.35506509E-09-1.31070458E-08
 1 13 6.81113703E-02 9.84075525E-07 1.34951549E-03-4.84746057E-05 2.01178253E-05
 1 14 9.24429324E-09 1.47213425E-03 3.85310269E-04-1.32713272E-07-1.33187179E-04
 1 15 1.49463320E-05 1.18240847E-04 5.84289429E-05 4.70748213E-08-2.80478359E-08
 1 16 7.02756833E-03-1.20142893E-04 7.24884038E-04-3.15546635E-05-2.96513402E-05
 1 17-6.10911005E-09-2.86221208E-05 4.06693166E-04 6.39463994E-08 4.68851092E-05
 1 18 1.08889261E-05-5.77740353E-05 1.43757200E-05-1.57156065E-08 8.35271221E-09
 1 19-6.99657602E-06 2.00628297E-04 1.26586149E-05 6.66336596E-05 8.62166138E-09
 1 20-7.03986030E-05 5.42402850E-05-7.68835438E-07-4.14490532E-07 1.26017114E-09
 1 21-7.16423869E-06 2.00692221E-04-6.42314890E-05 2.14805355E-05 1.13067533E-08
 1 22 6.81025289E-02 9.88558347E-07 1.34928470E-03 4.84572107E-05-2.01178043E-05
 1 23-8.98545891E-09-1.47203761E-03-3.85707444E-04 1.31429407E-07-1.33134851E-04
 1 24 1.49566590E-05 1.18178192E-04 5.84303796E-05 4.59588448E-08-2.74827565E-08
 1 25 6.82342717E-02 1.48272634E-06 1.34861556E-03 6.15874630E-06 5.21582385E-05
 1 26 7.20527438E-09-1.05600966E-03-1.09483956E-03-1.98960429E-08 2.26400444E-05
 1 27-1.40825421E-04 1.18185377E-04-4.27347674E-05 1.06738457E-08-4.09725143E-08
 1 28-6.95515492E-06 2.00755737E-04-1.26555659E-05-6.66443803E-05-8.35628922E-09
 1 29-7.04755646E-05 5.41745633E-05-7.79986297E-07-4.76569593E-07-2.26304087E-10
 1 30 7.05178151E-03-1.20026339E-04 7.24570308E-04 4.13087444E-05 1.29963972E-05
 1 31-4.45334217E-09-3.40472623E-04 2.23852815E-04 7.42009436E-08 3.01541463E-05
 1 32 2.75768366E-05-5.77309829E-05 2.51009294E-05-4.99885736E-09 1.37379785E-08
 1 33 7.02670292E-03-1.20162066E-04 7.25229972E-04 3.15565979E-05 2.96524597E-05
 1 34 5.77963906E-09 2.84778655E-05-4.06710164E-04-6.44284255E-08 4.68819110E-05
 1 35 1.08842332E-05-5.77661442E-05 1.43660178E-05-1.55629054E-08 8.44488891E-09
 1 36-7.13764908E-06 2.00812096E-04 6.42346407E-05-2.14808955E-05-1.10449844E-08
 1 37-7.03955267E-05 5.42194814E-05 7.69063570E-07 4.13031678E-07-9.97620815E-10
 1 38-7.04733947E-05 5.42053034E-05 7.81065175E-07 4.78483979E-07 1.78034062E-10
 2  1 1.16399893E-02 8.74690035E-05-1.33767922E-03-1.65860952E-06 4.65242156E-06
 2  2-4.07414688E-09-2.65193837E-04-3.82375026E-04-2.40900572E-08 3.31203617E-05
 2  3-1.19794804E-05-2.11408813E-05 2.38259736E-05-8.71695636E-09-4.77866134E-09
 2  4 8.54104181E-02 2.22417969E-04 2.17599429E-04-2.59296442E-05-5.80706980E-05
 2  5-5.22801374E-09-1.24917519E-03 8.40592087E-04 2.91807351E-07-5.37616019E-05
 2  6-1.82836572E-04 2.36598174E-04-1.00990757E-04 2.62125700E-08-5.70978896E-08
 2  7 6.98450953E-01 3.60036643E-03-1.22868383E-02-2.56437495E-05 4.39534301E-05
 2  8 1.02729296E-08 2.94942149E-03-5.03930214E-03-1.13559539E-06 2.48193367E-04
 2  9 1.58543256E-04-4.06736623E-04 9.22622589E-05-8.50949906E-08 8.32417370E-08
 2 10-6.98282937E-01-3.59961834E-03 1.22851776E-02-2.56367588E-05 4.39681649E-05
 2 11 8.69117168E-09 2.94941510E-03-5.03970257E-03-1.12280780E-06-2.48173858E-04
 2 12-1.58551885E-04 4.06725743E-04-9.22237688E-05 8.59510528E-08-8.49494113E-08
 2 13-8.52049131E-02-2.21543094E-04-2.20223335E-04 6.33198206E-05-5.77280456E-06
 2 14-9.15702422E-09-1.22517338E-04 1.50103795E-03 2.34449498E-07 2.26512791E-04
 2 15 1.01332615E-05-2.36646052E-04-1.10089093E-05-7.33626452E-08 4.35995713E-08
 2 16-1.15827160E-02-8.73445666E-05 1.33778044E-03-3.28030801E-06 3.72355656E-06
 2 17 3.41583945E-10 4.63542508E-04 4.41601021E-05-5.13844037E-08-1.64180278E-05
 2 18-4.73378864E-06 2.11518164E-05-3.46628240E-05 1.21323103E-09-1.95419930E-10
 2 19 1.32380327E-04 5.02247059E-04-6.09108177E-07 2.44867865E-05 4.63436496E-09
 2 20 6.83581422E-07-7.33456114E-05 6.75452713E-06-1.12068825E-06-2.25129829E-09
 2 21 1.32294237E-04 5.02345985E-04-2.10017153E-05 1.24300092E-05 4.75340119E-09
 2 22 8.52376742E-02 2.21624715E-04 2.20251879E-04 6.33293702E-05-5.78073758E-06
 2 23-9.53767879E-09-1.22782878E-04 1.50089061E-03 2.43092985E-07-2.26549524E-04
 2 24-1.01177966E-05 2.36667321E-04 1.10230380E-05 7.16553590E-08-4.33832301E-08
 2 25-8.53990784E-02-2.22453855E-04-2.17066016E-04-2.59261521E-05-5.80560512E-05
 2 26-5.05734762E-09-1.24942054E-03 8.40244080E-04 2.82590544E-07 5.37663700E-05
 2 27 1.82803099E-04-2.36569469E-04 1.00991301E-04-2.46850682E-08 5.91940532E-08
 2 28-1.32392594E-04-5.02198612E-04-6.19714178E-07 2.44770037E-05 4.59166347E-09
 2 29-6.81809945E-07 7.35287120E-05-2.33874254E-06-6.44597017E-06-5.59076107E-10
 2 30-1.16389448E-02-8.74982453E-05 1.33777962E-03-1.64838679E-06 4.65628274E-06
 2 31-4.52234769E-09-2.65252805E-04-3.82274409E-04-2.17420608E-08-3.31152140E-05
 2 32 1.19885809E-05 2.11266331E-05-2.38128652E-05 8.23797763E-09 4.75591773E-09
 2 33 1.15871000E-02 8.73201596E-05-1.33753010E-03-3.27298802E-06 3.73420948E-06
 2 34 4.48201554E-10 4.63489732E-04 4.40637476E-05-5.29740326E-08 1.64225809E-05
 2 35 4.73949763E-06-2.11620785E-05 3.46645349E-05-1.10008926E-09 4.67473077E-10
 2 36-1.32289501E-04-5.02293431E-04-2.09854172E-05 1.24200213E-05 4.21636879E-09
 2 37-7.05545152E-07 7.33458080E-05 6.75422660E-06-1.11996966E-06-2.73774557E-09
 2 38 6.70608931E-07-7.34969451E-05-2.33985061E-06-6.44600925E-06-3.26091310E-10
 3  1-3.90672351E-01-1.57264885E-03 2.62979938E-03 3.61431265E-05 3.54869643E-05
 3  2-2.29973980E-10 3.12355954E-04-2.72838133E-04-7.51301465E-08 1.42412317E-05
 3  3-2.04588014E-05 6.21756971E-06-6.96791108E-05-1.17906411E-08 5.45181084E-09
 3  4-3.17268870E-01-1.34258760E-03 2.70244498E-03-6.12823451E-05 2.28620149E-05
 3  5 8.78886173E-09 9.58349634E-04 1.00900756E-03 2.31738947E-08-5.76900120E-05
 3  6 7.57808467E-06 5.01119273E-05 4.99350281E-05 2.45203442E-08-1.28534517E-08
 3  7 7.82554667E-04 2.78671638E-06 5.21956534E-07-7.97521932E-05-4.66257586E-05
 3  8 6.53186902E-10 1.67828591E-03 1.00408999E-03-7.16031541E-08-2.12200313E-05
 3  9 2.49252530E-05-3.70522169E-06 1.36734194E-05 6.24228494E-09 4.49213177E-09
 3 10-1.23058319E-03-6.44970795E-06 1.01718892E-05-7.96888246E-05-4.67300278E-05
 3 11 6.98595621E-10 1.67816238E-03 1.00431269E-03-7.16147230E-08 2.09297290E-05
 3 12-2.52386444E-05 4.30891536E-06-1.36512905E-05-6.18054551E-09-4.71733182E-09
 3 13-3.10683327E-01-1.31394295E-03 2.65127129E-03-8.91463857E-06-6.37065071E-05
 3 14-8.72478388E-09 1.34175059E-03 3.34910528E-04-1.24151454E-07 3.07278160E-05
 3 15-7.75566647E-05 4.68288487E-05-6.19423751E-06 2.19993252E-09-2.14067706E-08
 3 16-3.85597103E-01-1.55056948E-03 2.57549026E-03 4.79784354E-05 1.29541005E-05
 3 17-2.43969017E-09-9.50848852E-05 4.18983476E-04 6.54148252E-08-6.25010320E-05
 3 18 5.79268318E-05 4.57420018E-06-1.92456079E-05 6.60177149E-09 1.26406617E-08
 3 19-6.92708059E-05 3.23814714E-04 3.31944998E-05-1.09783861E-04-2.19956051E-08
 3 20 8.09222356E-05-5.55425397E-04 5.54961734E-05 1.22217469E-04 1.08930564E-08
 3 21 7.01846452E-05-3.29815313E-04-8.05940130E-05 8.49832582E-05 2.36731975E-08
 3 22 3.12665109E-01 1.32132611E-03-2.66143734E-03-9.01281670E-06-6.40463337E-05
 3 23-9.01489943E-09 1.34392013E-03 3.35863947E-04-1.22074883E-07-3.04293470E-05
 3 24 7.82709720E-05-4.78416250E-05 6.32224128E-06-2.66350685E-09 2.24996501E-08
 3 25 3.19266319E-01 1.35001992E-03-2.71254564E-03-6.16329550E-05 2.29434082E-05
 3 26 8.01850986E-09 9.60345241E-04 1.01038681E-03 2.98248524E-08 5.83862951E-05
 3 27-7.28027864E-06-5.11060165E-05-5.00741599E-05-2.37259715E-08 1.16589063E-08
 3 28 6.83809466E-05-3.21250985E-04 3.26436915E-05-1.09150784E-04-2.17014901E-08
 3 29 7.91502466E-05-5.51714343E-04 1.31397675E-04-1.13157704E-05-1.72047427E-08
 3 30 3.93235862E-01 1.58239712E-03-2.64386765E-03 3.65622495E-05 3.56766205E-05
 3 31 6.67589668E-10 3.12851497E-04-2.73704173E-04-7.75728073E-08-1.42558856E-05
 3 32 2.06601439E-05-6.40425838E-06 7.01777872E-05 1.26550923E-08-4.36033955E-09
 3 33 3.88098670E-01 1.56002363E-03-2.58876602E-03 4.83484804E-05 1.32161330E-05
 3 34-2.61755905E-09-9.58111614E-05 4.19915988E-04 6.84758003E-08 6.30010023E-05
 3 35-5.82910618E-05-4.70994053E-06 1.93896576E-05-6.85165190E-09-1.27034158E-08
 3 36-7.10685496E-05 3.32428036E-04-8.08760064E-05 8.57717211E-05 2.31522155E-08
 3 37-8.17101310E-05 5.59301739E-04 5.58817812E-05 1.22985318E-04 1.17281891E-08
 3 38-7.99074436E-05 5.55574641E-04 1.32220051E-04-1.13517045E-05-1.72173021E-08
 4  1 4.05913227E-01 1.54909620E-03-2.22901754E-03-6.38481956E-05-3.15147114E-05
 4  2 3.06788228E-09-9.01055365E-05 1.51601607E-04 3.59690658E-08-1.43177604E-07
 4  3 3.28666188E-05-3.27234412E-05 8.07855574E-05 5.97382042E-09 1.02075991E-09
 4  4 3.01705910E-01 1.11588319E-03-1.52791388E-03 5.34111100E-05-1.25990061E-05
 4  5-9.90802492E-09-3.28361810E-04-2.28258553E-04 1.38129183E-08 1.02643118E-04
 4  6 4.09819373E-05-1.43625055E-04-1.91063830E-05-4.05701643E-08 3.32522821E-08
 4  7-6.60877348E-02-5.50501969E-04 1.59842158E-03-8.02813713E-06 1.58032499E-05
 4  8 7.32061974E-09-3.78897863E-05-6.88425307E-05-1.28195896E-08-3.77093827E-05
 4  9-4.64173416E-05 8.41267243E-05 6.95308280E-06 1.99184992E-08-2.33040496E-08
 4 10-6.60738268E-02-5.50428436E-04 1.59818970E-03 8.53759313E-06-1.55049784E-05
 4 11-8.00217720E-09 2.72719144E-05 6.24899759E-05 1.39541356E-08-3.78215236E-05
 4 12-4.62640770E-05 8.40856007E-05 7.03366006E-06 1.95479139E-08-2.42263585E-08
 4 13 2.91972411E-01 1.06952074E-03-1.36262585E-03 1.46892800E-05 5.13247644E-05
 4 14 3.70785746E-09-3.19718954E-04-2.05568896E-04 1.31973078E-08 4.19443482E-05
 4 15 1.01295400E-04-1.43239748E-04 2.10919007E-05-2.75638205E-08 3.89408780E-08
 4 16 3.99229883E-01 1.52199775E-03-2.22250571E-03-5.85043207E-05-3.94199157E-05
 4 17 3.69654155E-09 6.76834197E-05-1.69262852E-04-3.95338439E-08 8.36418421E-05
 4 18-5.44473377E-05-2.91945044E-05 2.58406173E-05-1.36842575E-08-8.11869010E-09
 4 19-1.26835674E-04 3.92912642E-04 7.89597155E-05-8.86839510E-05-2.34434035E-08
 4 20-1.26096402E-04 6.12976456E-04-6.20339659E-05-1.23980426E-04-1.12765407E-08
 4 21-1.29957842E-04 3.96453661E-04 4.10765468E-05-1.15426274E-04-2.27451681E-08
 4 22 2.90043124E-01 1.06142771E-03-1.34664053E-03-1.46283581E-05-5.09189493E-05
 4 23-4.16515115E-09 3.11146824E-04 2.03105207E-04-1.10353007E-08 4.21588380E-05
 4 24 1.00842411E-04-1.43001249E-04 2.10487788E-05-2.72983868E-08 3.92302343E-08
 4 25 2.99716952E-01 1.10750540E-03-1.51124502E-03-5.30169930E-05 1.24603952E-05
 4 26 8.77754947E-09 3.22013423E-04 2.21858017E-04-1.02419412E-08 1.02294566E-04
 4 27 4.10400165E-05-1.43334583E-04-1.87998127E-05-3.91912631E-08 3.23743326E-08
 4 28-1.27228267E-04 3.94962507E-04-7.91444611E-05 8.93423347E-05 2.32919768E-08
 4 29-1.24612541E-04 6.01067287E-04-1.34798851E-04 6.34041867E-06 1.88484066E-08
 4 30 4.03337393E-01 1.53870353E-03-2.21158237E-03 6.36164604E-05 3.12737625E-05
 4 31-1.86291399E-09 8.79273777E-05-1.49793042E-04-3.79651383E-08-5.72696172E-08
 4 32 3.27251685E-05-3.26678989E-05 8.03134623E-05 7.11761186E-09 2.36103435E-09
 4 33 3.96653272E-01 1.51157793E-03-2.20487579E-03 5.81868612E-05 3.93373656E-05
 4 34-3.16794554E-09-6.72963794E-05 1.66432684E-04 3.94481546E-08 8.31997296E-05
 4 35-5.40887926E-05-2.91109370E-05 2.56960561E-05-1.35644374E-08-7.92790647E-09
 4 36-1.29535521E-04 3.94364034E-04-4.05738583E-05 1.14907654E-04 2.19436823E-08
 4 37-1.25546377E-04 6.09329954E-04 6.16651370E-05 1.23163463E-04 1.20147527E-08
 4 38-1.24051984E-04 5.97456346E-04 1.33898656E-04-6.26184307E-06-1.83669816E-08
 5  1-2.41800706E-01-9.41080202E-04-4.46069027E-04 3.04231331E-05-1.05145782E-05
 5  2-5.15161757E-09-1.14120905E-03-6.30500566E-04 5.12163373E-08-8.13529841E-05
 5  3-2.73982435E-05 1.08751228E-04 4.00064532E-05 3.39398328E-08-2.92452314E-08
 5  4-4.31953636E-01-2.07986602E-03 7.60062703E-03-5.85691544E-05 1.61915271E-05
 5  5 9.75187258E-09-4.31672097E-04 2.31759690E-03 3.95766524E-07-9.50425741E-06
 5  6-2.79016089E-05 3.74058663E-05 4.45676065E-05 1.09323651E-08-1.77396216E-08
 5  7-8.06148694E-04-6.48656526E-06 1.63051252E-05-6.35153442E-05-3.70711567E-05
 5  8 1.01127077E-09 4.80976609E-03 2.81025078E-03-2.13093707E-07-5.50428203E-05
 5  9 5.35611495E-05 1.48167081E-06 3.59303909E-05 1.30441319E-08 1.48164602E-09
 5 10-3.13849646E-04-4.15786107E-06 1.28297598E-05 6.35059042E-05 3.70728344E-05
 5 11-6.87009384E-10-4.80472644E-03-2.81859396E-03 2.08262156E-07-5.41742211E-05
 5 12 5.48553559E-05-6.81134783E-07 3.54733716E-05 1.32581768E-08 2.78849779E-09
 5 13 4.37362260E-01 2.09806665E-03-7.61746257E-03 1.47610121E-05 6.00746007E-05
 5 14 1.14863064E-08-1.81710905E-03 1.50185309E-03 4.59812172E-07-9.04472585E-06
 5 15 4.83447737E-05-3.93000478E-05-3.16376624E-05-7.70314046E-09 2.04366297E-08
 5 16 2.52361241E-01 9.82473714E-04 3.81831155E-04-7.19072908E-06-3.25174352E-05
 5 17-4.37674058E-09 1.10774004E-03 6.80533395E-04-4.02155195E-08 1.32663556E-05
 5 18 9.69651872E-05-1.10231543E-04 6.79851229E-06-1.78050130E-08 3.46681160E-08
 5 19-1.36690428E-04 4.23503666E-05 6.87221318E-05-1.39585988E-04-3.22605158E-08
 5 20 2.74176847E-05-5.13430511E-04 5.06883902E-05 1.15798927E-04 1.18125712E-08
 5 21 1.34176551E-04-3.14926036E-05-8.72618539E-05 1.25657925E-04 3.09635379E-08
 5 22 4.39202891E-01 2.10622115E-03-7.63315120E-03-1.50503401E-05-6.03112930E-05
 5 23-1.15568576E-08 1.81928778E-03-1.50075068E-03-4.59060943E-07-8.50934793E-06
 5 24 4.88547937E-05-4.03454458E-05-3.16809070E-05-8.93499893E-09 2.13668939E-08
 5 25-4.33726320E-01-2.08769185E-03 7.61544384E-03 5.89103245E-05-1.60516462E-05
 5 26-9.18883275E-09 4.29534134E-04-2.31878735E-03-4.01195962E-07-9.96318938E-06
 5 27-2.84415265E-05 3.84047159E-05 4.45687408E-05 1.03835599E-08-1.58328322E-08
 5 28-1.36084049E-04 4.01661971E-05-6.81371541E-05 1.38778512E-04 3.18503271E-08
 5 29-3.10091527E-05 5.28278447E-04-1.29725425E-04 1.26885363E-05 1.73070306E-08
 5 30-2.42868074E-01-9.45579052E-04-4.35559381E-04-3.07517010E-05 1.05220996E-05
 5 31 4.80903200E-09 1.14319119E-03 6.27613520E-04-4.75793643E-08-8.14581520E-05
 5 32-2.74296048E-05 1.08887757E-04 3.99664794E-05 3.31151893E-08-3.00288946E-08
 5 33 2.53379065E-01 9.86735808E-04 3.71836172E-04 7.34214489E-06 3.28049921E-05
 5 34 4.08435820E-09-1.10631255E-03-6.83763336E-04 3.62598090E-08 1.33236373E-05
 5 35 9.70143953E-05-1.10338033E-04 6.83460415E-06-1.72982887E-08 3.51644901E-08
 5 36 1.34749109E-04-3.36440823E-05 8.76559026E-05-1.26526057E-04-3.01672957E-08
 5 37 2.76602763E-05-5.14363718E-04-5.08452869E-05-1.16176804E-04-1.21732625E-08
 5 38-3.12216401E-05 5.29189504E-04 1.30099122E-04-1.27322424E-05-1.72031206E-08
 6  1-2.59947162E-01-1.10585103E-03 2.63698301E-03 7.77152770E-05-2.23094573E-06
 6  2-1.24201175E-08-4.53825659E-04 7.33513020E-04 1.73597770E-07-2.62079260E-05
 6  3-2.25267098E-05 4.87346358E-05-1.24678019E-05 7.99733192E-09-1.10793223E-08
 6  4-4.17876497E-01-1.84070511E-03 3.46197935E-03-7.93337357E-05-3.21029334E-05
 6  5 9.64442231E-09 5.19493302E-04 2.65119768E-04-3.03054523E-08-1.04137860E-04
 6  6-1.22893855E-04 2.27031715E-04-5.95351664E-06 4.88891938E-08-5.57307048E-08
 6  7 1.11477217E-01 5.25849449E-04-7.03869892E-04 1.45587130E-06-1.45034189E-06
 6  8 1.83758679E-09-1.17050869E-03 1.99436099E-03 4.44143504E-07 1.94752762E-04
 6  9 3.03366962E-04-4.98119724E-04-1.11510933E-04-1.19604328E-07 1.53654117E-07
 6 10-1.11466163E-01-5.25798200E-04 7.03689096E-04 1.72152493E-06-1.28971002E-06
 6 11 1.02585862E-09-1.19025121E-03 1.98279662E-03 4.44378570E-07-1.94961862E-04
 6 12-3.03132080E-04 4.98093941E-04 1.11673215E-04 1.19239731E-07-1.54316206E-07
 6 13 4.21697229E-01 1.85590022E-03-3.48769143E-03 6.69841960E-05 5.44119493E-05
 6 14-1.08016555E-09-5.06330709E-04-3.33728499E-04 2.35978970E-08 1.22027651E-04
 6 15 1.04817835E-04-2.26845487E-04-5.97095877E-06-5.45041726E-08 5.76595500E-08
 6 16 2.67711722E-01 1.13796286E-03-2.69382284E-03-3.69798044E-05-6.90994956E-05
 6 17-4.68332527E-09-4.18729649E-04 7.45484622E-04 1.60003679E-07 3.42168118E-05
 6 18 1.52995751E-05-4.95163870E-05 9.04801818E-06-1.22906233E-08 9.73361185E-09
 6 19 1.28490560E-04-5.17066774E-04-1.30416839E-04 1.79142271E-04 4.35906770E-08
 6 20 6.84640087E-05-2.16851729E-04 4.26151421E-05 9.67845691E-05 8.45746323E-09
 6 21 1.28642081E-04-5.12432445E-04-9.18995258E-05 2.01257127E-04 4.14322588E-08
 6 22-4.19923223E-01-1.84741622E-03 3.45700423E-03 6.69210299E-05 5.41655886E-05
 6 23-4.16806595E-11-4.98851201E-04-3.39613453E-04 1.79332713E-08-1.22074489E-04
 6 24-1.04679536E-04 2.26754025E-04 5.84933646E-06 5.39910075E-08-5.83740549E-08
 6 25 4.16053760E-01 1.83195341E-03-3.43056570E-03-7.90812575E-05-3.21619374E-05
 6 26 7.20290714E-09 5.21147929E-04 2.55589938E-04-2.49341137E-08 1.04108353E-04
 6 27 1.22768825E-04-2.26877178E-04 6.11457520E-06-4.70591000E-08 5.51931021E-08
 6 28-1.29000791E-04 5.17263588E-04-1.30672003E-04 1.79683892E-04 4.30761353E-08
 6 29-7.05000315E-05 2.26923644E-04-1.08233200E-04 1.04654817E-05 1.52198016E-08
 6 30 2.58883523E-01 1.10164603E-03-2.63787270E-03 7.75815687E-05-2.18515513E-06
 6 31-1.16640488E-08-4.49167174E-04 7.35832552E-04 1.70109925E-07 2.58663505E-05
 6 32 2.23529416E-05-4.82192921E-05 1.26234763E-05-6.75801657E-09 1.20657996E-08
 6 33-2.66551132E-01-1.13333253E-03 2.69389028E-03-3.69438231E-05-6.89595544E-05
 6 34-5.02410775E-09-4.22916255E-04 7.42682517E-04 1.63358479E-07-3.40823217E-05
 6 35-1.48771333E-05 4.89594550E-05-9.01907259E-06 1.16332633E-08-9.61215134E-09
 6 36-1.28089627E-04 5.12250349E-04-9.15295901E-05 2.00727945E-04 4.01250444E-08
 6 37-6.82991349E-05 2.14720591E-04 4.23811797E-05 9.62663648E-05 9.22761492E-09
 6 38 7.02893306E-05-2.24702760E-04-1.07614274E-04 1.04117268E-05 1.46916911E-08
 7  1 3.17619376E-01 1.49775395E-03-3.45632273E-03-4.70933546E-06-2.40214198E-05
 7  2-4.78179358E-09-9.16344917E-04-3.24271061E-04 8.38149622E-08 1.31443513E-04
 7  3 5.01475445E-05-1.81591058E-04 8.85638314E-05-3.19778639E-08 2.97918206E-08
 7  4-3.89536001E-01-1.91926088E-03 5.12528466E-03-1.18660108E-05 2.74104421E-05
 7  5 2.77775886E-09-8.99629338E-04 9.75734285E-04 2.53459950E-07-1.44515177E-04
 7  6-1.24393510E-04 2.68908688E-04 4.76900167E-05 7.02553317E-08-7.56168482E-08
 7  7-7.75491711E-06 4.85907035E-07-1.10967341E-05-6.01185685E-05-3.51373555E-05
 7  8 5.71488305E-09 1.17245200E-03 6.87734418E-04-5.27538476E-08-7.93768085E-05
 7  9 7.99088073E-05-5.31998841E-07 5.18918394E-05 1.62226510E-08 3.57154822E-09
 7 10-4.44646250E-04-3.31635197E-06 2.31222656E-05-5.99666608E-05-3.54150860E-05
 7 11 5.76249344E-09 1.17317369E-03 6.87817748E-04-5.54370957E-08 7.80796149E-05
 7 12-8.04796241E-05 2.40000928E-06-5.26530919E-05-1.67983741E-08-4.75888043E-09
 7 13-3.87492179E-01-1.90705428E-03 5.07876780E-03 1.82306910E-05-2.38380759E-05
 7 14-7.43304473E-09 4.03553174E-04-1.24686738E-03-2.27044121E-07-9.24769819E-05
 7 15-1.71945917E-04 2.64422898E-04 1.42937000E-05 5.63526036E-08-7.96305210E-08
 7 16 3.10665331E-01 1.46333006E-03-3.35961893E-03-2.30751005E-05 8.43169857E-06
 7 17 5.57026245E-09-7.03164353E-04-6.47026872E-04-1.72718209E-08 1.30440191E-04
 7 18 4.36440585E-05-1.74084250E-04 8.67889251E-05-3.54378491E-08 2.47168226E-08
 7 19-2.06645457E-04 1.77704532E-04 1.13001184E-04-2.10106042E-04-4.91944462E-08
 7 20-1.77502975E-04 1.87761277E-04-8.41799830E-05-1.70945337E-04-1.47298373E-08
 7 21 2.07715083E-04-1.75019336E-04-1.28428544E-04 2.01808100E-04 4.72912753E-08
 7 22 3.89936367E-01 1.91878562E-03-5.10538731E-03 1.81062809E-05-2.39919732E-05
 7 23-7.28117428E-09 4.04054488E-04-1.25369502E-03-2.32105636E-07 9.35226378E-05
 7 24 1.73288007E-04-2.66810645E-04-1.45166605E-05-5.65542306E-08 8.20736891E-08
 7 25 3.92075541E-01 1.93148592E-03-5.15391041E-03-1.20596915E-05 2.73859032E-05
 7 26 1.42036695E-09-9.05591882E-04 9.80120317E-04 2.57146184E-07 1.45639864E-04
 7 27 1.25693402E-04-2.71333266E-04-4.79723984E-05-6.88931343E-08 7.50752749E-08
 7 28 2.04916334E-04-1.76704879E-04 1.12032474E-04-2.08636593E-04-4.87381009E-08
 7 29-1.72374504E-04 1.86713467E-04-1.85190822E-04 1.04429171E-05 2.80021943E-08
 7 30-3.19621488E-01-1.50729543E-03 3.47805724E-03-4.59148490E-06-2.42555482E-05
 7 31-5.98673911E-09-9.22161173E-04-3.26115944E-04 8.07621575E-08-1.32357317E-04
 7 32-5.04566397E-05 1.82813956E-04-8.91403777E-05 3.09748020E-08-3.11637374E-08
 7 33-3.12654186E-01-1.47275574E-03 3.38031851E-03-2.32234000E-05 8.65144028E-06
 7 34 5.15161662E-09-7.07096590E-04-6.51070901E-04-1.85025642E-08-1.31290195E-04
 7 35-4.39776684E-05 1.75267863E-04-8.73794355E-05 3.48898431E-08-2.57262086E-08
 7 36-2.09493704E-04 1.75987549E-04-1.29259400E-04 2.03408524E-04 4.61835265E-08
 7 37 1.78609125E-04-1.88876413E-04-8.47441192E-05-1.72044502E-04-1.60171713E-08
 7 38 1.73443985E-04-1.87937925E-04-1.86409632E-04 1.04881547E-05 2.77043131E-08
 8  1-3.04625454E-01-1.45928270E-03 3.32140736E-03-1.99977454E-05 3.67709623E-05
 8  2 6.09760085E-09 8.88103749E-04 2.82419432E-04-5.91481964E-08-1.42438799E-04
 8  3-4.89694127E-05 1.91408211E-04-8.55937723E-05 3.59535901E-08-2.93174573E-08
 8  4 4.00952245E-01 1.91798869E-03-4.41275596E-03 3.20172159E-05 3.77472702E-06
 8  5-2.82580218E-09 9.16212351E-04-6.57270879E-04-2.31288769E-07 1.78165979E-04
 8  6 2.05117234E-04-3.83283213E-04-4.10129697E-05-9.20075125E-08 1.03156076E-07
 8  7-7.17348822E-02-4.57266798E-04 1.91897731E-03-2.50418771E-05 4.41846960E-05
 8  8 5.08495970E-09-4.72369603E-05 3.07082841E-05 3.51782728E-08-2.04223489E-04
 8  9-9.02817189E-05 2.94505208E-04-1.18309364E-04 5.69424878E-08-5.19519707E-08
 8 10-7.17378346E-02-4.57270775E-04 1.91884286E-03 2.54521140E-05-4.39453152E-05
 8 11-5.59630982E-09 3.92615617E-05-3.50818093E-05-3.35843427E-08-2.04749725E-04
 8 12-8.97866044E-05 2.94536329E-04-1.17962898E-04 5.65599174E-08-5.26647530E-08
 8 13 3.98674257E-01 1.90395242E-03-4.33459988E-03 1.94200812E-05 2.62676850E-05
 8 14-2.61088899E-09-1.13029080E-04 1.09144413E-03 1.93537211E-07 1.67345845E-04
 8 15 2.11878456E-04-3.79224300E-04-3.45195692E-05-8.88742231E-08 1.06594703E-07
 8 16-2.96697211E-01-1.41946165E-03 3.19543146E-03 2.19967889E-05-3.63494769E-05
 8 17-5.53569748E-09 6.41478521E-04 6.39973021E-04-4.90657815E-09-1.29614372E-04
 8 18-5.37355453E-05 1.83349918E-04-9.12477181E-05 3.36639972E-08-2.73660220E-08