 $contrl  ISPHER=1  scftyp=none   cityp=aldet $end
 $SYSTEM mwords=1000 $END
 $cidet pures=.T. NFLGDM(1)=1,1 ncore=29 nact=10
 nels=10  nstate=5   $end
 $GUESS guess=moread  norb=180 NORDER=1  IORDER(27)=30
 IORDER(30)=27  IORDER(45)=38  IORDER(38)=45 
 IORDER(48)=39  IORDER(39)=48 
 $END
 $BASIS  GBASIS=CCD $END
 $DATA
 naphthalene ras2
 C1
 C 6   -4.111788    -0.444693     0.000332
 C 6   -2.743340    -0.442836     0.000154
 C 6   -2.019606     0.768761     0.000237
 C 6   -2.740444     1.999993     0.000513
 C 6   -4.151192     1.961676     0.000694
 C 6   -4.822466     0.769219     0.000606
 H 1   -0.064505    -0.130110    -0.000158
 H 1   -4.653284    -1.381976     0.000263
 H 1   -2.192289    -1.376101    -0.000055
 C 6   -0.608854     0.807076     0.000058
 C 6   -2.016714     3.211599     0.000600
 H 1   -4.695554     2.898855     0.000908
 H 1   -5.904837     0.755656     0.000746
 C 6   -0.648269     3.213447     0.000425
 C 6    0.062411     1.999537     0.000150
 H 1   -2.567774     4.144855     0.000805
 H 1   -0.106753     4.150721     0.000500
 H 1    1.144782     2.013107     0.000012
 $end

--- CLOSED SHELL ORBITALS --- GENERATED AT Fri Oct 16 21:41:46 2020
 naphthalene RHF                                                                 
E(RHF)=     -383.3842115689, E(NUC)=  460.0194657632,   11 ITERS
 $VEC   
 1  1 7.04876339E-03-1.20049943E-04 7.24947214E-04-4.13077626E-05-1.29978137E-05
 1  2 4.18598129E-09 3.40563152E-04-2.23755842E-04-7.48787537E-08 3.01479751E-05
 1  3 2.75793309E-05-5.77273059E-05 2.50982671E-05-5.52126160E-09 1.38115803E-08
 1  4 6.82121443E-02 1.41519592E-06 1.34860453E-03-6.15491622E-06-5.21457868E-05
 1  5-7.28428191E-09 1.05636569E-03 1.09467094E-03 1.84972810E-08 2.26502427E-05
 1  6-1.40779305E-04 1.18129062E-04-4.27022607E-05 1.06355197E-08-3.95076650E-08
 1  7 7.01720878E-01 3.11181178E-03-7.06288308E-03 2.73367506E-05-4.66237777E-05
 1  8-1.06994305E-08-7.37550017E-04 1.25930163E-03 2.89166632E-07 9.20293135E-05
 1  9-3.68365260E-05-5.51927875E-05 1.32845158E-04-3.83718494E-09-1.28286126E-08
 1 10 7.01890456E-01 3.11268679E-03-7.06591420E-03-2.73404476E-05 4.66095974E-05
 1 11 1.24720551E-08 7.36901378E-04-1.25802735E-03-2.96230432E-07 9.20920184E-05
 1 12-3.67982380E-05-5.52937803E-05 1.32859791E-04-3.35506514E-09-1.31070459E-08
 1 13 6.81113703E-02 9.84075530E-07 1.34951549E-03-4.84746057E-05 2.01178253E-05
 1 14 9.24429332E-09 1.47213425E-03 3.85310269E-04-1.32713272E-07-1.33187179E-04
 1 15 1.49463320E-05 1.18240847E-04 5.84289428E-05 4.70748214E-08-2.80478359E-08
 1 16 7.02756833E-03-1.20142893E-04 7.24884038E-04-3.15546635E-05-2.96513402E-05
 1 17-6.10910992E-09-2.86221206E-05 4.06693166E-04 6.39463994E-08 4.68851092E-05
 1 18 1.08889261E-05-5.77740353E-05 1.43757200E-05-1.57156066E-08 8.35271224E-09
 1 19-6.99657604E-06 2.00628297E-04 1.26586149E-05 6.66336596E-05 8.62166141E-09
 1 20-7.03986030E-05 5.42402849E-05-7.68835431E-07-4.14490523E-07 1.26017109E-09
 1 21-7.16423870E-06 2.00692221E-04-6.42314890E-05 2.14805355E-05 1.13067533E-08
 1 22 6.81025289E-02 9.88558373E-07 1.34928470E-03 4.84572107E-05-2.01178043E-05
 1 23-8.98545884E-09-1.47203761E-03-3.85707445E-04 1.31429407E-07-1.33134851E-04
 1 24 1.49566590E-05 1.18178192E-04 5.84303796E-05 4.59588448E-08-2.74827565E-08
 1 25 6.82342717E-02 1.48272628E-06 1.34861556E-03 6.15874629E-06 5.21582385E-05
 1 26 7.20527446E-09-1.05600966E-03-1.09483956E-03-1.98960431E-08 2.26400444E-05
 1 27-1.40825421E-04 1.18185377E-04-4.27347674E-05 1.06738455E-08-4.09725145E-08
 1 28-6.95515492E-06 2.00755737E-04-1.26555659E-05-6.66443803E-05-8.35628926E-09
 1 29-7.04755646E-05 5.41745634E-05-7.79986303E-07-4.76569587E-07-2.26304241E-10
 1 30 7.05178151E-03-1.20026339E-04 7.24570308E-04 4.13087444E-05 1.29963972E-05
 1 31-4.45334221E-09-3.40472623E-04 2.23852815E-04 7.42009437E-08 3.01541463E-05
 1 32 2.75768366E-05-5.77309829E-05 2.51009294E-05-4.99885742E-09 1.37379787E-08
 1 33 7.02670292E-03-1.20162066E-04 7.25229973E-04 3.15565979E-05 2.96524597E-05
 1 34 5.77963908E-09 2.84778653E-05-4.06710165E-04-6.44284255E-08 4.68819110E-05
 1 35 1.08842332E-05-5.77661442E-05 1.43660178E-05-1.55629057E-08 8.44488889E-09
 1 36-7.13764907E-06 2.00812096E-04 6.42346406E-05-2.14808954E-05-1.10449844E-08
 1 37-7.03955267E-05 5.42194813E-05 7.69063555E-07 4.13031675E-07-9.97620923E-10
 1 38-7.04733947E-05 5.42053034E-05 7.81065181E-07 4.78483995E-07 1.78034227E-10
 2  1 1.16399893E-02 8.74690035E-05-1.33767922E-03-1.65860953E-06 4.65242156E-06
 2  2-4.07414688E-09-2.65193838E-04-3.82375026E-04-2.40900575E-08 3.31203617E-05
 2  3-1.19794804E-05-2.11408813E-05 2.38259736E-05-8.71695626E-09-4.77866134E-09
 2  4 8.54104181E-02 2.22417969E-04 2.17599429E-04-2.59296442E-05-5.80706980E-05
 2  5-5.22801381E-09-1.24917519E-03 8.40592087E-04 2.91807351E-07-5.37616019E-05
 2  6-1.82836572E-04 2.36598174E-04-1.00990757E-04 2.62125700E-08-5.70978897E-08
 2  7 6.98450953E-01 3.60036643E-03-1.22868383E-02-2.56437495E-05 4.39534301E-05
 2  8 1.02729299E-08 2.94942149E-03-5.03930214E-03-1.13559539E-06 2.48193367E-04
 2  9 1.58543256E-04-4.06736623E-04 9.22622589E-05-8.50949907E-08 8.32417369E-08
 2 10-6.98282937E-01-3.59961834E-03 1.22851776E-02-2.56367588E-05 4.39681649E-05
 2 11 8.69117183E-09 2.94941510E-03-5.03970257E-03-1.12280780E-06-2.48173858E-04
 2 12-1.58551885E-04 4.06725743E-04-9.22237688E-05 8.59510528E-08-8.49494113E-08
 2 13-8.52049131E-02-2.21543094E-04-2.20223335E-04 6.33198206E-05-5.77280456E-06
 2 14-9.15702431E-09-1.22517338E-04 1.50103795E-03 2.34449498E-07 2.26512791E-04
 2 15 1.01332615E-05-2.36646052E-04-1.10089093E-05-7.33626453E-08 4.35995713E-08
 2 16-1.15827160E-02-8.73445667E-05 1.33778044E-03-3.28030801E-06 3.72355655E-06
 2 17 3.41583879E-10 4.63542508E-04 4.41601022E-05-5.13844035E-08-1.64180278E-05
 2 18-4.73378863E-06 2.11518164E-05-3.46628240E-05 1.21323109E-09-1.95420015E-10
 2 19 1.32380327E-04 5.02247059E-04-6.09108161E-07 2.44867865E-05 4.63436482E-09
 2 20 6.83581421E-07-7.33456114E-05 6.75452714E-06-1.12068824E-06-2.25129823E-09
 2 21 1.32294237E-04 5.02345985E-04-2.10017153E-05 1.24300092E-05 4.75340106E-09
 2 22 8.52376742E-02 2.21624715E-04 2.20251879E-04 6.33293702E-05-5.78073757E-06
 2 23-9.53767892E-09-1.22782878E-04 1.50089061E-03 2.43092985E-07-2.26549524E-04
 2 24-1.01177966E-05 2.36667321E-04 1.10230380E-05 7.16553592E-08-4.33832302E-08
 2 25-8.53990784E-02-2.22453855E-04-2.17066017E-04-2.59261520E-05-5.80560512E-05
 2 26-5.05734761E-09-1.24942054E-03 8.40244080E-04 2.82590544E-07 5.37663700E-05
 2 27 1.82803099E-04-2.36569469E-04 1.00991301E-04-2.46850679E-08 5.91940530E-08
 2 28-1.32392594E-04-5.02198612E-04-6.19714182E-07 2.44770037E-05 4.59166349E-09
 2 29-6.81809934E-07 7.35287121E-05-2.33874254E-06-6.44597018E-06-5.59076038E-10
 2 30-1.16389448E-02-8.74982453E-05 1.33777962E-03-1.64838680E-06 4.65628275E-06
 2 31-4.52234777E-09-2.65252805E-04-3.82274409E-04-2.17420611E-08-3.31152140E-05
 2 32 1.19885809E-05 2.11266331E-05-2.38128652E-05 8.23797767E-09 4.75591762E-09
 2 33 1.15871000E-02 8.73201596E-05-1.33753010E-03-3.27298802E-06 3.73420947E-06
 2 34 4.48201478E-10 4.63489732E-04 4.40637472E-05-5.29740326E-08 1.64225809E-05
 2 35 4.73949763E-06-2.11620785E-05 3.46645349E-05-1.10008921E-09 4.67473080E-10
 2 36-1.32289501E-04-5.02293431E-04-2.09854172E-05 1.24200213E-05 4.21636891E-09
 2 37-7.05545153E-07 7.33458081E-05 6.75422660E-06-1.11996965E-06-2.73774543E-09
 2 38 6.70608922E-07-7.34969452E-05-2.33985061E-06-6.44600923E-06-3.26091365E-10
 3  1-3.90672351E-01-1.57264885E-03 2.62979938E-03 3.61431265E-05 3.54869643E-05
 3  2-2.29974019E-10 3.12355954E-04-2.72838134E-04-7.51301461E-08 1.42412317E-05
 3  3-2.04588014E-05 6.21756967E-06-6.96791108E-05-1.17906411E-08 5.45181089E-09
 3  4-3.17268869E-01-1.34258760E-03 2.70244498E-03-6.12823451E-05 2.28620149E-05
 3  5 8.78886175E-09 9.58349634E-04 1.00900756E-03 2.31738943E-08-5.76900120E-05
 3  6 7.57808468E-06 5.01119273E-05 4.99350281E-05 2.45203441E-08-1.28534516E-08
 3  7 7.82554641E-04 2.78671617E-06 5.21957295E-07-7.97521932E-05-4.66257586E-05
 3  8 6.53186890E-10 1.67828591E-03 1.00408999E-03-7.16031532E-08-2.12200313E-05
 3  9 2.49252530E-05-3.70522166E-06 1.36734194E-05 6.24228507E-09 4.49213174E-09
 3 10-1.23058321E-03-6.44970808E-06 1.01718894E-05-7.96888246E-05-4.67300278E-05
 3 11 6.98595685E-10 1.67816238E-03 1.00431269E-03-7.16147238E-08 2.09297290E-05
 3 12-2.52386444E-05 4.30891538E-06-1.36512905E-05-6.18054555E-09-4.71733176E-09
 3 13-3.10683326E-01-1.31394295E-03 2.65127129E-03-8.91463857E-06-6.37065071E-05
 3 14-8.72478400E-09 1.34175059E-03 3.34910529E-04-1.24151453E-07 3.07278160E-05
 3 15-7.75566646E-05 4.68288486E-05-6.19423750E-06 2.19993252E-09-2.14067706E-08
 3 16-3.85597103E-01-1.55056948E-03 2.57549026E-03 4.79784354E-05 1.29541005E-05
 3 17-2.43969018E-09-9.50848845E-05 4.18983476E-04 6.54148248E-08-6.25010320E-05
 3 18 5.79268318E-05 4.57420018E-06-1.92456079E-05 6.60177149E-09 1.26406617E-08
 3 19-6.92708060E-05 3.23814714E-04 3.31944998E-05-1.09783861E-04-2.19956051E-08
 3 20 8.09222356E-05-5.55425396E-04 5.54961734E-05 1.22217469E-04 1.08930564E-08
 3 21 7.01846452E-05-3.29815313E-04-8.05940130E-05 8.49832582E-05 2.36731976E-08
 3 22 3.12665109E-01 1.32132611E-03-2.66143734E-03-9.01281670E-06-6.40463337E-05
 3 23-9.01489942E-09 1.34392013E-03 3.35863946E-04-1.22074884E-07-3.04293470E-05
 3 24 7.82709720E-05-4.78416250E-05 6.32224129E-06-2.66350664E-09 2.24996499E-08
 3 25 3.19266319E-01 1.35001992E-03-2.71254563E-03-6.16329551E-05 2.29434082E-05
 3 26 8.01850979E-09 9.60345241E-04 1.01038681E-03 2.98248527E-08 5.83862951E-05
 3 27-7.28027861E-06-5.11060165E-05-5.00741599E-05-2.37259715E-08 1.16589064E-08
 3 28 6.83809465E-05-3.21250985E-04 3.26436915E-05-1.09150784E-04-2.17014902E-08
 3 29 7.91502466E-05-5.51714342E-04 1.31397675E-04-1.13157704E-05-1.72047427E-08
 3 30 3.93235862E-01 1.58239712E-03-2.64386765E-03 3.65622495E-05 3.56766205E-05
 3 31 6.67589761E-10 3.12851497E-04-2.73704172E-04-7.75728077E-08-1.42558856E-05
 3 32 2.06601439E-05-6.40425836E-06 7.01777873E-05 1.26550922E-08-4.36033956E-09
 3 33 3.88098670E-01 1.56002363E-03-2.58876602E-03 4.83484804E-05 1.32161330E-05
 3 34-2.61755921E-09-9.58111621E-05 4.19915988E-04 6.84758010E-08 6.30010023E-05
 3 35-5.82910618E-05-4.70994057E-06 1.93896576E-05-6.85165201E-09-1.27034158E-08
 3 36-7.10685496E-05 3.32428037E-04-8.08760064E-05 8.57717212E-05 2.31522154E-08
 3 37-8.17101310E-05 5.59301739E-04 5.58817812E-05 1.22985318E-04 1.17281892E-08
 3 38-7.99074436E-05 5.55574642E-04 1.32220051E-04-1.13517045E-05-1.72173021E-08
 4  1 4.05913227E-01 1.54909620E-03-2.22901754E-03-6.38481957E-05-3.15147114E-05
 4  2 3.06788237E-09-9.01055366E-05 1.51601607E-04 3.59690655E-08-1.43177628E-07
 4  3 3.28666188E-05-3.27234412E-05 8.07855574E-05 5.97382048E-09 1.02075991E-09
 4  4 3.01705910E-01 1.11588319E-03-1.52791388E-03 5.34111100E-05-1.25990061E-05
 4  5-9.90802494E-09-3.28361810E-04-2.28258553E-04 1.38129185E-08 1.02643118E-04
 4  6 4.09819373E-05-1.43625055E-04-1.91063830E-05-4.05701643E-08 3.32522821E-08
 4  7-6.60877348E-02-5.50501969E-04 1.59842158E-03-8.02813711E-06 1.58032499E-05
 4  8 7.32061984E-09-3.78897858E-05-6.88425303E-05-1.28195901E-08-3.77093827E-05
 4  9-4.64173416E-05 8.41267243E-05 6.95308279E-06 1.99184992E-08-2.33040496E-08
 4 10-6.60738268E-02-5.50428436E-04 1.59818970E-03 8.53759317E-06-1.55049784E-05
 4 11-8.00217724E-09 2.72719128E-05 6.24899750E-05 1.39541363E-08-3.78215236E-05
 4 12-4.62640770E-05 8.40856007E-05 7.03366006E-06 1.95479138E-08-2.42263585E-08
 4 13 2.91972411E-01 1.06952074E-03-1.36262585E-03 1.46892800E-05 5.13247645E-05
 4 14 3.70785737E-09-3.19718954E-04-2.05568896E-04 1.31973076E-08 4.19443482E-05
 4 15 1.01295400E-04-1.43239748E-04 2.10919007E-05-2.75638207E-08 3.89408780E-08
 4 16 3.99229884E-01 1.52199775E-03-2.22250571E-03-5.85043207E-05-3.94199157E-05
 4 17 3.69654148E-09 6.76834196E-05-1.69262852E-04-3.95338436E-08 8.36418421E-05
 4 18-5.44473377E-05-2.91945044E-05 2.58406173E-05-1.36842576E-08-8.11869010E-09
 4 19-1.26835674E-04 3.92912641E-04 7.89597154E-05-8.86839509E-05-2.34434035E-08
 4 20-1.26096402E-04 6.12976456E-04-6.20339659E-05-1.23980426E-04-1.12765406E-08
 4 21-1.29957842E-04 3.96453661E-04 4.10765468E-05-1.15426274E-04-2.27451681E-08
 4 22 2.90043124E-01 1.06142771E-03-1.34664053E-03-1.46283580E-05-5.09189493E-05
 4 23-4.16515129E-09 3.11146825E-04 2.03105207E-04-1.10353006E-08 4.21588380E-05
 4 24 1.00842411E-04-1.43001249E-04 2.10487788E-05-2.72983868E-08 3.92302342E-08
 4 25 2.99716952E-01 1.10750540E-03-1.51124502E-03-5.30169930E-05 1.24603952E-05
 4 26 8.77754947E-09 3.22013423E-04 2.21858016E-04-1.02419416E-08 1.02294566E-04
 4 27 4.10400165E-05-1.43334583E-04-1.87998127E-05-3.91912631E-08 3.23743327E-08
 4 28-1.27228267E-04 3.94962507E-04-7.91444611E-05 8.93423348E-05 2.32919768E-08
 4 29-1.24612541E-04 6.01067287E-04-1.34798851E-04 6.34041867E-06 1.88484066E-08
 4 30 4.03337393E-01 1.53870353E-03-2.21158237E-03 6.36164604E-05 3.12737625E-05
 4 31-1.86291407E-09 8.79273778E-05-1.49793041E-04-3.79651381E-08-5.72696212E-08
 4 32 3.27251685E-05-3.26678988E-05 8.03134623E-05 7.11761186E-09 2.36103436E-09
 4 33 3.96653272E-01 1.51157793E-03-2.20487579E-03 5.81868611E-05 3.93373656E-05
 4 34-3.16794573E-09-6.72963801E-05 1.66432684E-04 3.94481548E-08 8.31997296E-05
 4 35-5.40887926E-05-2.91109370E-05 2.56960561E-05-1.35644373E-08-7.92790645E-09
 4 36-1.29535521E-04 3.94364034E-04-4.05738583E-05 1.14907654E-04 2.19436823E-08
 4 37-1.25546377E-04 6.09329953E-04 6.16651370E-05 1.23163463E-04 1.20147527E-08
 4 38-1.24051984E-04 5.97456346E-04 1.33898656E-04-6.26184307E-06-1.83669815E-08
 5  1-2.41800706E-01-9.41080202E-04-4.46069027E-04 3.04231331E-05-1.05145782E-05
 5  2-5.15161770E-09-1.14120905E-03-6.30500566E-04 5.12163375E-08-8.13529841E-05
 5  3-2.73982434E-05 1.08751228E-04 4.00064532E-05 3.39398328E-08-2.92452314E-08
 5  4-4.31953636E-01-2.07986602E-03 7.60062703E-03-5.85691544E-05 1.61915271E-05
 5  5 9.75187269E-09-4.31672097E-04 2.31759690E-03 3.95766524E-07-9.50425744E-06
 5  6-2.79016090E-05 3.74058664E-05 4.45676065E-05 1.09323651E-08-1.77396216E-08
 5  7-8.06148697E-04-6.48656528E-06 1.63051255E-05-6.35153442E-05-3.70711567E-05
 5  8 1.01127080E-09 4.80976609E-03 2.81025078E-03-2.13093707E-07-5.50428203E-05
 5  9 5.35611495E-05 1.48167082E-06 3.59303909E-05 1.30441317E-08 1.48164603E-09
 5 10-3.13849631E-04-4.15786099E-06 1.28297595E-05 6.35059042E-05 3.70728344E-05
 5 11-6.87009317E-10-4.80472644E-03-2.81859396E-03 2.08262155E-07-5.41742211E-05
 5 12 5.48553559E-05-6.81134827E-07 3.54733716E-05 1.32581768E-08 2.78849789E-09
 5 13 4.37362260E-01 2.09806665E-03-7.61746256E-03 1.47610121E-05 6.00746007E-05
 5 14 1.14863063E-08-1.81710905E-03 1.50185309E-03 4.59812172E-07-9.04472586E-06
 5 15 4.83447736E-05-3.93000478E-05-3.16376624E-05-7.70314040E-09 2.04366297E-08
 5 16 2.52361241E-01 9.82473714E-04 3.81831154E-04-7.19072908E-06-3.25174352E-05
 5 17-4.37674055E-09 1.10774004E-03 6.80533395E-04-4.02155196E-08 1.32663556E-05
 5 18 9.69651872E-05-1.10231543E-04 6.79851230E-06-1.78050130E-08 3.46681160E-08
 5 19-1.36690428E-04 4.23503666E-05 6.87221318E-05-1.39585988E-04-3.22605157E-08
 5 20 2.74176847E-05-5.13430511E-04 5.06883902E-05 1.15798926E-04 1.18125712E-08
 5 21 1.34176551E-04-3.14926037E-05-8.72618539E-05 1.25657925E-04 3.09635380E-08
 5 22 4.39202891E-01 2.10622115E-03-7.63315120E-03-1.50503401E-05-6.03112930E-05
 5 23-1.15568577E-08 1.81928778E-03-1.50075068E-03-4.59060943E-07-8.50934793E-06
 5 24 4.88547937E-05-4.03454458E-05-3.16809070E-05-8.93499899E-09 2.13668938E-08
 5 25-4.33726320E-01-2.08769185E-03 7.61544384E-03 5.89103246E-05-1.60516462E-05
 5 26-9.18883275E-09 4.29534134E-04-2.31878735E-03-4.01195961E-07-9.96318939E-06
 5 27-2.84415265E-05 3.84047159E-05 4.45687408E-05 1.03835598E-08-1.58328322E-08
 5 28-1.36084049E-04 4.01661972E-05-6.81371540E-05 1.38778512E-04 3.18503272E-08
 5 29-3.10091527E-05 5.28278447E-04-1.29725425E-04 1.26885363E-05 1.73070307E-08
 5 30-2.42868074E-01-9.45579053E-04-4.35559380E-04-3.07517010E-05 1.05220996E-05
 5 31 4.80903202E-09 1.14319119E-03 6.27613519E-04-4.75793645E-08-8.14581520E-05
 5 32-2.74296048E-05 1.08887757E-04 3.99664794E-05 3.31151892E-08-3.00288946E-08
 5 33 2.53379065E-01 9.86735808E-04 3.71836172E-04 7.34214489E-06 3.28049921E-05
 5 34 4.08435809E-09-1.10631255E-03-6.83763336E-04 3.62598093E-08 1.33236372E-05
 5 35 9.70143953E-05-1.10338033E-04 6.83460415E-06-1.72982887E-08 3.51644901E-08
 5 36 1.34749109E-04-3.36440825E-05 8.76559026E-05-1.26526057E-04-3.01672958E-08
 5 37 2.76602764E-05-5.14363718E-04-5.08452869E-05-1.16176804E-04-1.21732625E-08
 5 38-3.12216401E-05 5.29189504E-04 1.30099122E-04-1.27322424E-05-1.72031206E-08
 6  1-2.59947162E-01-1.10585103E-03 2.63698301E-03 7.77152770E-05-2.23094574E-06
 6  2-1.24201177E-08-4.53825659E-04 7.33513020E-04 1.73597770E-07-2.62079260E-05
 6  3-2.25267098E-05 4.87346358E-05-1.24678019E-05 7.99733190E-09-1.10793224E-08
 6  4-4.17876497E-01-1.84070511E-03 3.46197935E-03-7.93337357E-05-3.21029334E-05
 6  5 9.64442229E-09 5.19493302E-04 2.65119768E-04-3.03054522E-08-1.04137860E-04
 6  6-1.22893855E-04 2.27031715E-04-5.95351663E-06 4.88891937E-08-5.57307048E-08
 6  7 1.11477217E-01 5.25849449E-04-7.03869892E-04 1.45587130E-06-1.45034189E-06
 6  8 1.83758675E-09-1.17050869E-03 1.99436099E-03 4.44143504E-07 1.94752762E-04
 6  9 3.03366962E-04-4.98119724E-04-1.11510933E-04-1.19604328E-07 1.53654117E-07
 6 10-1.11466163E-01-5.25798200E-04 7.03689096E-04 1.72152492E-06-1.28971002E-06
 6 11 1.02585860E-09-1.19025121E-03 1.98279662E-03 4.44378570E-07-1.94961862E-04
 6 12-3.03132080E-04 4.98093941E-04 1.11673215E-04 1.19239732E-07-1.54316205E-07
 6 13 4.21697229E-01 1.85590022E-03-3.48769143E-03 6.69841960E-05 5.44119493E-05
 6 14-1.08016543E-09-5.06330709E-04-3.33728499E-04 2.35978970E-08 1.22027651E-04
 6 15 1.04817835E-04-2.26845487E-04-5.97095877E-06-5.45041725E-08 5.76595499E-08
 6 16 2.67711722E-01 1.13796286E-03-2.69382284E-03-3.69798044E-05-6.90994956E-05
 6 17-4.68332540E-09-4.18729649E-04 7.45484622E-04 1.60003679E-07 3.42168118E-05
 6 18 1.52995751E-05-4.95163870E-05 9.04801820E-06-1.22906233E-08 9.73361181E-09
 6 19 1.28490560E-04-5.17066774E-04-1.30416839E-04 1.79142271E-04 4.35906768E-08
 6 20 6.84640087E-05-2.16851729E-04 4.26151421E-05 9.67845691E-05 8.45746326E-09
 6 21 1.28642081E-04-5.12432445E-04-9.18995259E-05 2.01257127E-04 4.14322588E-08
 6 22-4.19923223E-01-1.84741622E-03 3.45700423E-03 6.69210299E-05 5.41655886E-05
 6 23-4.16806853E-11-4.98851201E-04-3.39613453E-04 1.79332715E-08-1.22074489E-04
 6 24-1.04679536E-04 2.26754025E-04 5.84933645E-06 5.39910074E-08-5.83740550E-08
 6 25 4.16053760E-01 1.83195341E-03-3.43056570E-03-7.90812575E-05-3.21619374E-05
 6 26 7.20290699E-09 5.21147929E-04 2.55589938E-04-2.49341136E-08 1.04108353E-04
 6 27 1.22768825E-04-2.26877178E-04 6.11457520E-06-4.70591000E-08 5.51931020E-08
 6 28-1.29000791E-04 5.17263588E-04-1.30672003E-04 1.79683892E-04 4.30761351E-08
 6 29-7.05000315E-05 2.26923644E-04-1.08233200E-04 1.04654817E-05 1.52198015E-08
 6 30 2.58883523E-01 1.10164603E-03-2.63787270E-03 7.75815687E-05-2.18515513E-06
 6 31-1.16640488E-08-4.49167174E-04 7.35832552E-04 1.70109926E-07 2.58663505E-05
 6 32 2.23529416E-05-4.82192921E-05 1.26234763E-05-6.75801667E-09 1.20657997E-08
 6 33-2.66551132E-01-1.13333253E-03 2.69389028E-03-3.69438231E-05-6.89595544E-05
 6 34-5.02410763E-09-4.22916255E-04 7.42682517E-04 1.63358479E-07-3.40823217E-05
 6 35-1.48771333E-05 4.89594550E-05-9.01907259E-06 1.16332633E-08-9.61215149E-09
 6 36-1.28089627E-04 5.12250349E-04-9.15295901E-05 2.00727945E-04 4.01250443E-08
 6 37-6.82991349E-05 2.14720591E-04 4.23811796E-05 9.62663648E-05 9.22761495E-09
 6 38 7.02893306E-05-2.24702760E-04-1.07614274E-04 1.04117268E-05 1.46916910E-08
 7  1 3.17619376E-01 1.49775395E-03-3.45632273E-03-4.70933547E-06-2.40214198E-05
 7  2-4.78179372E-09-9.16344916E-04-3.24271061E-04 8.38149623E-08 1.31443513E-04
 7  3 5.01475444E-05-1.81591058E-04 8.85638314E-05-3.19778639E-08 2.97918205E-08
 7  4-3.89536001E-01-1.91926088E-03 5.12528465E-03-1.18660108E-05 2.74104421E-05
 7  5 2.77775891E-09-8.99629338E-04 9.75734284E-04 2.53459950E-07-1.44515177E-04
 7  6-1.24393510E-04 2.68908687E-04 4.76900167E-05 7.02553317E-08-7.56168480E-08
 7  7-7.75493844E-06 4.85906886E-07-1.10967333E-05-6.01185685E-05-3.51373555E-05
 7  8 5.71488310E-09 1.17245200E-03 6.87734417E-04-5.27538477E-08-7.93768086E-05
 7  9 7.99088073E-05-5.31998747E-07 5.18918394E-05 1.62226510E-08 3.57154816E-09
 7 10-4.44646266E-04-3.31635205E-06 2.31222657E-05-5.99666608E-05-3.54150860E-05
 7 11 5.76249341E-09 1.17317369E-03 6.87817748E-04-5.54370957E-08 7.80796148E-05
 7 12-8.04796242E-05 2.40000935E-06-5.26530920E-05-1.67983740E-08-4.75888038E-09
 7 13-3.87492179E-01-1.90705428E-03 5.07876780E-03 1.82306910E-05-2.38380759E-05
 7 14-7.43304466E-09 4.03553174E-04-1.24686738E-03-2.27044121E-07-9.24769819E-05
 7 15-1.71945916E-04 2.64422898E-04 1.42937000E-05 5.63526035E-08-7.96305212E-08
 7 16 3.10665331E-01 1.46333006E-03-3.35961893E-03-2.30751005E-05 8.43169856E-06
 7 17 5.57026243E-09-7.03164354E-04-6.47026871E-04-1.72718210E-08 1.30440191E-04
 7 18 4.36440585E-05-1.74084250E-04 8.67889250E-05-3.54378492E-08 2.47168225E-08
 7 19-2.06645457E-04 1.77704532E-04 1.13001184E-04-2.10106043E-04-4.91944463E-08
 7 20-1.77502974E-04 1.87761277E-04-8.41799830E-05-1.70945336E-04-1.47298374E-08
 7 21 2.07715083E-04-1.75019336E-04-1.28428544E-04 2.01808100E-04 4.72912754E-08
 7 22 3.89936368E-01 1.91878562E-03-5.10538731E-03 1.81062809E-05-2.39919732E-05
 7 23-7.28117431E-09 4.04054488E-04-1.25369502E-03-2.32105636E-07 9.35226378E-05
 7 24 1.73288007E-04-2.66810645E-04-1.45166605E-05-5.65542307E-08 8.20736890E-08
 7 25 3.92075541E-01 1.93148592E-03-5.15391041E-03-1.20596915E-05 2.73859032E-05
 7 26 1.42036682E-09-9.05591882E-04 9.80120317E-04 2.57146184E-07 1.45639864E-04
 7 27 1.25693403E-04-2.71333266E-04-4.79723985E-05-6.88931343E-08 7.50752750E-08
 7 28 2.04916333E-04-1.76704879E-04 1.12032474E-04-2.08636593E-04-4.87381008E-08
 7 29-1.72374504E-04 1.86713467E-04-1.85190822E-04 1.04429170E-05 2.80021943E-08
 7 30-3.19621488E-01-1.50729543E-03 3.47805724E-03-4.59148490E-06-2.42555482E-05
 7 31-5.98673916E-09-9.22161173E-04-3.26115945E-04 8.07621577E-08-1.32357317E-04
 7 32-5.04566397E-05 1.82813956E-04-8.91403777E-05 3.09748019E-08-3.11637372E-08
 7 33-3.12654186E-01-1.47275574E-03 3.38031851E-03-2.32234000E-05 8.65144029E-06
 7 34 5.15161672E-09-7.07096590E-04-6.51070901E-04-1.85025645E-08-1.31290195E-04
 7 35-4.39776684E-05 1.75267863E-04-8.73794356E-05 3.48898430E-08-2.57262087E-08
 7 36-2.09493704E-04 1.75987549E-04-1.29259400E-04 2.03408524E-04 4.61835265E-08
 7 37 1.78609125E-04-1.88876413E-04-8.47441192E-05-1.72044503E-04-1.60171715E-08
 7 38 1.73443985E-04-1.87937925E-04-1.86409632E-04 1.04881547E-05 2.77043132E-08
 8  1-3.04625454E-01-1.45928270E-03 3.32140736E-03-1.99977454E-05 3.67709623E-05
 8  2 6.09760098E-09 8.88103749E-04 2.82419432E-04-5.91481968E-08-1.42438799E-04
 8  3-4.89694127E-05 1.91408211E-04-8.55937724E-05 3.59535902E-08-2.93174574E-08
 8  4 4.00952245E-01 1.91798869E-03-4.41275596E-03 3.20172159E-05 3.77472701E-06
 8  5-2.82580232E-09 9.16212351E-04-6.57270879E-04-2.31288769E-07 1.78165979E-04
 8  6 2.05117234E-04-3.83283213E-04-4.10129697E-05-9.20075124E-08 1.03156077E-07
 8  7-7.17348822E-02-4.57266798E-04 1.91897731E-03-2.50418771E-05 4.41846960E-05
 8  8 5.08495978E-09-4.72369596E-05 3.07082847E-05 3.51782720E-08-2.04223489E-04
 8  9-9.02817189E-05 2.94505208E-04-1.18309364E-04 5.69424878E-08-5.19519706E-08
 8 10-7.17378347E-02-4.57270775E-04 1.91884286E-03 2.54521140E-05-4.39453152E-05
 8 11-5.59630982E-09 3.92615603E-05-3.50818100E-05-3.35843422E-08-2.04749725E-04
 8 12-8.97866044E-05 2.94536329E-04-1.17962898E-04 5.65599176E-08-5.26647530E-08
 8 13 3.98674257E-01 1.90395242E-03-4.33459988E-03 1.94200812E-05 2.62676850E-05
 8 14-2.61088898E-09-1.13029081E-04 1.09144413E-03 1.93537211E-07 1.67345845E-04
 8 15 2.11878456E-04-3.79224301E-04-3.45195692E-05-8.88742231E-08 1.06594703E-07
 8 16-2.96697211E-01-1.41946165E-03 3.19543146E-03 2.19967890E-05-3.63494769E-05
 8 17-5.53569745E-09 6.41478522E-04 6.39973021E-04-4.90657813E-09-1.29614373E-04
 8 18-5.37355453E-05 1.83349918E-04-9.12477181E-05 3.36639973E-08-2.73660220E-08
 8 19-2.75046711E-04 1.67577880E-04 1.53946244E-04-2.33747551E-04-5.44985766E-08
 8 20 1.69263941E-04-1.64807105E-04 8.73267718E-05 1.69470881E-04 1.13302990E-08
 8 21-2.79256352E-04 1.64245937E-04 1.30412554E-04-2.51772036E-04-5.17806336E-08
 8 22 3.96086681E-01 1.89127740E-03-4.30117290E-03-1.95324198E-05-2.60978625E-05
 8 23 2.06994223E-09 1.10134311E-04-1.08356385E-03-1.93351511E-07 1.66731278E-04
 8 24 2.10763274E-04-3.77494551E-04-3.44249098E-05-8.73299124E-08 1.07623704E-07
 8 25 3.98427070E-01 1.90557918E-03-4.37967944E-03-3.19293362E-05-3.95628795E-06
 8 26 9.28953025E-10-9.10584708E-04 6.50842169E-04 2.29352559E-07 1.77241641E-04
 8 27 2.04320956E-04-3.81562596E-04-4.07162102E-05-8.94740775E-08 1.02694795E-07
 8 28-2.76384132E-04 1.68827982E-04-1.54682062E-04 2.35127154E-04 5.39766894E-08
 8 29 1.63528676E-04-1.65092834E-04 1.85011464E-04-6.85290776E-06-2.44752701E-08
 8 30-3.02642552E-01-1.44989527E-03 3.29954149E-03 2.00270642E-05-3.66164247E-05
 8 31-7.18529579E-09-8.82339755E-04-2.80215984E-04 5.66938218E-08-1.41600440E-04
 8 32-4.86414386E-05 1.90241878E-04-8.50478153E-05 3.45936862E-08-3.03653466E-08
 8 33-2.94802661E-01-1.41048339E-03 3.17463544E-03-2.18573049E-05 3.62846945E-05
 8 34 5.69572379E-09-6.36973697E-04-6.35844451E-04 8.32273701E-10-1.28797694E-04
 8 35-5.34393725E-05 1.82237067E-04-9.06977861E-05 3.28849959E-08-2.79568720E-08
 8 36-2.77925934E-04 1.63106677E-04-1.29578924E-04 2.50478383E-04 4.97096666E-08
 8 37 1.68136787E-04-1.63690265E-04-8.67929923E-05-1.68392631E-04-1.25494762E-08
 8 38 1.62444595E-04-1.64025970E-04-1.83860019E-04 6.78862353E-06 2.42123678E-08
 9  1-4.31505471E-01-2.23824415E-03 7.89241389E-03 5.18027733E-05-1.19218114E-05
 9  2-9.69585273E-09 1.28205011E-03 2.38849189E-03 1.96460469E-07-1.78094691E-04
 9  3-2.98595998E-04 4.76690689E-04-3.81733423E-05 9.46012440E-08-1.27708451E-07
 9  4 2.44227187E-01 1.37444606E-03-6.64754808E-03-1.78090079E-05-2.61843691E-05
 9  5-5.84848984E-11 1.32358238E-03-2.06246332E-03-4.87476083E-07 1.52469520E-04
 9  6 1.09551712E-04-2.62021232E-04-6.84466658E-05-7.13160246E-08 7.14099468E-08
 9  7 6.46612581E-04 4.26871262E-06-2.23180794E-05 7.32398001E-05 4.23640871E-05
 9  8-7.55888907E-09-3.33577333E-03-1.95084956E-03 1.62420667E-07 3.07030136E-05
 9  9-2.73130531E-05-3.38996050E-06-1.72701937E-05-1.10032442E-08-2.46055641E-09
 9 10 3.11230631E-04 1.78189564E-06-5.07436390E-06-7.31791715E-05-4.24662238E-05
 9 11 7.13882088E-09 3.33325548E-03 1.95516665E-03-1.59294059E-07 2.93815422E-05
 9 12-2.82360141E-05-1.14552808E-06-1.76684426E-05-1.09310708E-08-3.40444550E-09
 9 13-2.49981430E-01-1.40268968E-03 6.71418521E-03 3.13267928E-05 2.43585026E-06
 9 14-6.11250010E-09 1.15237252E-03-2.18134651E-03-4.73160785E-07-7.19161352E-05
 9 15-1.95882363E-04 2.67798498E-04 1.51322538E-05 5.38853884E-08-8.19055212E-08
 9 16 4.37059818E-01 2.26415259E-03-7.94852295E-03-1.54133652E-05-5.05233228E-05
 9 17-5.58044209E-09-2.72061833E-03 4.06272835E-05 3.61247355E-07 3.00139661E-04
 9 18 1.79576077E-04-4.79715738E-04-3.79813332E-05-1.23936875E-07 1.18396250E-07
 9 19 2.13091456E-04 2.70549817E-04-8.40921475E-05 1.50299512E-04 3.56148814E-08
 9 20 3.44738213E-04 1.44896296E-04 1.57007093E-04 2.65717180E-04 1.80393448E-08
 9 21-2.07345885E-04-2.72455236E-04 8.71147898E-05-1.41799921E-04-3.11175797E-08
 9 22-2.51740941E-01-1.41211590E-03 6.74388555E-03-3.12082550E-05-2.42436159E-06
 9 23 6.02650841E-09-1.15671398E-03 2.18851679E-03 4.76633931E-07-7.29156190E-05
 9 24-1.97497774E-04 2.70413393E-04 1.54312104E-05 5.42986750E-08-8.41403520E-08
 9 25 2.45972964E-01 1.38379302E-03-6.67694383E-03 1.77414488E-05 2.60869626E-05
 9 26-5.30584920E-10-1.32755096E-03 2.06974635E-03 4.90977418E-07 1.53704357E-04
 9 27 1.10905800E-04-2.64610156E-04-6.89125731E-05-7.05394141E-08 7.14327343E-08
 9 28 2.11499922E-04 2.70591745E-04 8.33257499E-05-1.48935654E-04-3.49012976E-08
 9 29-3.47587902E-04-1.41080488E-04-3.11795313E-04-6.76363312E-06 4.05265612E-08
 9 30-4.34476131E-01-2.25332365E-03 7.93576461E-03-5.20621636E-05 1.20539400E-05
 9 31 8.29013585E-09-1.28699187E-03-2.40099481E-03-2.05551412E-07-1.79538004E-04
 9 32-3.00805651E-04 4.80343655E-04-3.83372749E-05 9.28887834E-08-1.31827176E-07
 9 33 4.40103313E-01 2.27954598E-03-7.99246782E-03 1.54363776E-05 5.08080678E-05
 9 34 5.82093587E-09 2.73401337E-03-4.23379120E-05-3.57663707E-07 3.02306080E-04
 9 35 1.81082562E-04-4.83388642E-04-3.82741515E-05-1.22987925E-07 1.20915250E-07
 9 36-2.08926522E-04-2.72405828E-04-8.79218719E-05 1.43122466E-04 2.98329273E-08
 9 37 3.47119817E-04 1.44827637E-04-1.58226614E-04-2.67672205E-04-2.06319594E-08
 9 38-3.49999947E-04-1.40938894E-04 3.14129165E-04 6.86952310E-06-4.03910902E-08
10  1-4.25320392E-01-2.16079826E-03 6.21399041E-03 3.57605754E-05-1.79146047E-05
10  2-7.02588883E-09 7.19387239E-04 1.79337052E-03 1.67604433E-07-2.04297056E-04
10  3-3.21374834E-04 5.25671890E-04-2.25187334E-05 1.06486089E-07-1.42458244E-07
10  4 2.59833738E-01 1.38253317E-03-4.31549734E-03 1.20496852E-05 1.47936503E-05
10  5-3.29935577E-09 5.60786049E-04-1.05608276E-03-2.17723196E-07 1.79338768E-04
10  6 1.98397980E-04-3.77736748E-04-6.47613852E-05-9.32684823E-08 1.07369531E-07
10  7-4.99358663E-02-3.67057830E-04 2.49357509E-03-8.98666652E-06 1.50824365E-05
10  8 7.16878617E-09 3.88296838E-04-6.74827229E-04-1.56351085E-07-1.93719245E-04
10  9-1.39723406E-04 3.33442652E-04-5.43967122E-05 7.33455643E-08-7.09568187E-08
10 10 4.99389142E-02 3.67087545E-04-2.49371715E-03-9.51240379E-06 1.47769896E-05
10 11 7.41432510E-09 4.12271798E-04-6.60796468E-04-1.60188235E-07 1.93934719E-04