! wb97x-d3 ma-def2-TZVP CPCM(dmf) AutoAux RIJCOSX OPT NUMFREQ verytightscf 
verytightopt 

%tddft 
  nroots 10 
  iroot 1 
  tda true 
  maxdim 5 
end 

*xyzfile 0 1 geo.xyz
