# Multilayer DLPNO-CCSD(T) energy calculation gas phase with definition of fragments
# Use the HFFragInter or MP2FragInter keywords (instead of NormalPNOFragInter) in the
# %mdci block to compute interaction energies at the HF or MP2 level, respectively
 
!TPSSh cc-pVTZ-DK DKH2 DLPNO-CCSD(T1) autoaux UNO TightPNO VeryTightSCF DEFGRID2

%maxcore 20000
%pal nprocs 12 end

%mdci
  maxiter 100
  maxdiis 15
  levelshift 0.5
  TightPNOFragInter {1 2} {1 1}
  NormalPNOFragInter {2 2} 
  # HFFragInter {2 2}
  # MP2FragInter {2 2}
end

%basis
  newGTO Cr "cc-pWCVTZ-DK" end
end

*xyz 2 5
 Cr(1) 0.00000005312509 -0.00000758693890 -0.00000217653280
 O(1) -0.47057888260532 -1.25991248352848 1.54906005073606
 O(1) -2.05114140682232 1.19935668251960 0.43675657772371
 O(1) 1.06660947439925 1.24623496024114 1.23339101656542
 O(1) -1.06660634273380 -1.24625142258114 -1.23339508231532
 O(1) 2.05114390169450 -1.19936658706124 -0.43676187688947
 O(1) 0.47058022527073 1.25989757269669 -1.54906300183221
 H(1) -1.40962375315646 -1.35295945448651 1.83450051465420
 H(1) 0.12647527860741 -1.37414130451592 2.32311140004353
 H(1) -2.56208837790882 1.66522286866731 -0.24664292435095
 H(1) -2.26018341683385 1.59415853515837 1.30302380603656
 H(1) 2.03975045484076 1.34007095504554 1.10949148257859
 H(1) 0.83369052695863 1.38519658121916 2.17855157098154
 H(1) -2.03974722919243 -1.34008559624118 -1.10949452539550
 H(1) -0.83369114407843 -1.38520035588326 -2.17855843016404
 H(1) 2.26018991517233 -1.59415831796752 -1.30303257998340
 H(1) 2.56208830529928 -1.66523951574027 0.24663498225071
 H(1) 1.40962496405028 1.35295816163716 -1.83449844314290
 H(1) -0.12647531172738 1.37414091846063 -2.32311097693409
 O(2) -3.13760262313716 -1.14109329248007 2.11542841461742
 O(2) 1.36931292550503 -1.24699440814625 3.58339767408322
 O(2) -3.54196139713703 1.24389256565592 -1.96846579112163
 O(2) -2.45621142497651 1.27759699643303 3.20222019777118
 O(2) 3.72408560336059 1.17024823316351 0.63058420244848
 O(2) 0.26518377182672 1.21822368928316 3.85667169029597
 O(2) -3.72408047127101 -1.17026459728635 -0.63057521475083
 O(2) -0.26518408707900 -1.21820685982544 -3.85667625980514
 O(2) 2.45621074650864 -1.27757484893220 -3.20223100178656
 O(2) 3.54195153451288 -1.24391135057024 1.96846565825789
 O(2) 3.13760764915806 1.14110039861140 -2.11541829624909
 O(2) -1.36931767121713 1.24700832123940 -3.58339013392702
 H(2) -3.59848896080644 -1.74045170752891 2.71928512684457
 H(2) -3.07438965264340 -0.26869917041723 2.57768093971506
 H(2) 1.43909036063679 -1.94571868908232 4.24870252681929
 H(2) 2.22982064534132 -1.24704638590095 3.08310769457125
 H(2) -3.79099313568717 0.38481447349776 -1.55383293408830
 H(2) -4.36765529711140 1.67705933211975 -2.22489557117508
 H(2) -1.54290480205198 1.26809882152917 3.57064900655176
 H(2) -2.98608778724011 1.83325022799995 3.78976811414601
 H(2) 3.65132939348943 1.09384070028024 -0.35135470715006
 H(2) 4.35251788323253 1.88517952047859 0.80356722654077
 H(2) 0.68488045383538 0.33641775517835 4.01018374826763
 H(2) 0.60971250630114 1.81477718637692 4.53607784385194
 H(2) -4.35251037438899 -1.88519911238016 -0.80355331043585
 H(2) -3.65132309326350 -1.09385062392980 0.35136299090401
 H(2) -0.60970867598080 -1.81475542296449 -4.53608888452329
 H(2) -0.68488239763840 -0.33640074859822 -4.01018266324736
 H(2) 2.98608520622283 -1.83322244142412 -3.78978591209686
 H(2) 1.54290183637695 -1.26807580823189 -3.57065428850920
 H(2) 4.36764194887830 -1.67708279752318 2.22489897331543
 H(2) 3.79099010808792 -0.38483418844682 1.55383495961630
 H(2) 3.07439352129572 0.26871056237169 -2.57767938166772
 H(2) 3.59849412612458 1.74046416667833 -2.71926953250476
 H(2) -2.22982671668198 1.24704933737080 -3.08310301719446
 H(2) -1.43909888674224 1.94573555469947 -4.24869147241460
*
