! RKS B3LYP RIJCOSX SlowConv TightSCF def2-SVP def2-SVP/J Normalprint COSMO(THF) PAL8

%basis
 NewGTO 40 "def2-TZVP(-f)" end
 NewGTO 17 "def2-TZVP(-f)" end
 NewGTO 7 "def2-TZVP(-f)" end
 NewAuxGTO 40 "def2-TZVP/J" end
 NewAuxGTO 17 "def2-TZVP/J" end
 NewAuxGTO 7 "def2-TZVP/J" end
end

%scf
 MaxIter 500
 TolE 1E-7
 TolErr 1E-6
end

%tddft nroots 50
 MaxDim 500
 triplets false
end

*xyz 0 1
 xyz coordinates from geometry optimization
*